vasp.5.4.1 08Jul2015 (build Apr 24 2014 00:09:29) complex standard with constrain (TS)
 executed on IBM of Center for Computational Chemistry date 2017.10.23  07:29:13

 INCAR:
 POTCAR:    PAW_PBE O 08Apr2002
 POTCAR:    PAW_PBE Ru 04Feb2005
 POTCAR:    PAW_PBE O 08Apr2002
   VRHFIN =O: s2p4

   TITEL  = PAW_PBE O 08Apr2002
   POMASS =   16.000; ZVAL   =    6.000    mass and valenz
   ENMAX  =  400.000; ENMIN  =  300.000 eV

 POTCAR:    PAW_PBE Ru 04Feb2005
   VRHFIN =Ru: s1 d7

   TITEL  = PAW_PBE Ru 04Feb2005
   POMASS =  101.070; ZVAL   =    8.000    mass and valenz
   ENMAX  =  213.271; ENMIN  =  159.953 eV

 Optimization of the real space projectors (new method)

 maximal supplied QI-value         = 24.76
 optimisation between [QCUT,QGAM] = [ 11.39, 22.77] = [ 36.31,145.25] Ry
 Optimized for a Real-space Cutoff    1.10 Angstroem

   l    n(q)    QCUT    max X(q) W(low)/X(q) W(high)/X(q)  e(spline)
   0      7    11.387    20.381    0.22E-03    0.48E-03    0.18E-06
   0      7    11.387    15.268    0.22E-03    0.52E-03    0.19E-06
   1      7    11.387     5.964    0.22E-03    0.73E-03    0.24E-06
   1      7    11.387     5.382    0.19E-03    0.60E-03    0.21E-06
 Optimization of the real space projectors (new method)

 maximal supplied QI-value         = 13.98
 optimisation between [QCUT,QGAM] = [ 11.33, 22.79] = [ 35.93,145.49] Ry
 Optimized for a Real-space Cutoff    1.56 Angstroem

   l    n(q)    QCUT    max X(q) W(low)/X(q) W(high)/X(q)  e(spline)
   2     10    11.327    61.733    0.89E-04    0.14E-03    0.14E-06
   2     10    11.327    59.886    0.91E-04    0.15E-03    0.14E-06
   0     11    11.327    23.358    0.43E-04    0.16E-04    0.34E-06
   0     11    11.327    11.320    0.30E-04    0.13E-04    0.28E-06
   1     10    11.327    14.765    0.66E-04    0.60E-04    0.10E-06
   1     10    11.327     8.283    0.48E-04    0.45E-04    0.80E-07
  PAW_PBE O 08Apr2002                   :
  PAW_PBE Ru 04Feb2005                  :

 POSCAR: AutoCreatByScript
  positions in direct lattice
 exchange correlation table for  LEXCH =        8
   RHO(1)=    0.500       N(1)  =     2000
   RHO(2)=  100.500       N(2)  =     4000

 ion  position               nearest neighbor table
   1  0.339  0.079  0.056-  35 1.94  34 1.99  33 1.99
   2  0.839  0.079  0.056-  36 1.94  34 1.99  33 1.99
   3  0.339  0.468  0.056-  35 1.94  34 1.99  33 1.99
   4  0.839  0.468  0.056-  36 1.94  34 1.99  33 1.99
   5  0.089  0.773  0.112-  39 1.94  36 1.99  35 1.99
   6  0.589  0.773  0.112-  40 1.94  36 1.99  35 1.99
   7  0.089  0.273  0.144-  33 1.94  37 1.99  38 1.99
   8  0.589  0.273  0.144-  34 1.94  37 1.99  38 1.99
   9  0.339  0.579  0.201-  37 1.94  39 1.99  40 1.99
  10  0.839  0.579  0.201-  38 1.94  39 1.99  40 1.99
  11  0.339  0.968  0.201-  37 1.94  39 1.99  40 1.99
  12  0.839  0.968  0.201-  38 1.94  39 1.99  40 1.99
  13  0.089  0.273  0.257-  41 1.94  38 1.99  37 1.99
  14  0.589  0.273  0.257-  42 1.94  38 1.99  37 1.99
  15  0.089  0.773  0.289-  39 1.94  43 1.99  44 1.99
  16  0.589  0.773  0.289-  40 1.94  43 1.99  44 1.99
  17  0.339  0.079  0.345-  43 1.94  42 1.99  41 1.99
  18  0.839  0.079  0.345-  44 1.94  42 1.99  41 1.99
  19  0.339  0.468  0.345-  43 1.94  42 1.99  41 1.99
  20  0.839  0.468  0.345-  44 1.94  42 1.99  41 1.99
  21  0.089  0.773  0.401-  47 1.94  44 1.99  43 1.99
  22  0.589  0.773  0.401-  48 1.94  44 1.99  43 1.99
  23  0.089  0.273  0.433-  41 1.94  45 1.99  46 1.99
  24  0.589  0.273  0.433-  42 1.94  45 1.99  46 1.99
  25  0.339  0.579  0.490-  45 1.94  47 1.99  48 1.99
  26  0.839  0.579  0.490-  46 1.94  47 1.99  48 1.99
  27  0.339  0.968  0.490-  45 1.94  47 1.99  48 1.99
  28  0.839  0.968  0.490-  46 1.94  47 1.99  48 1.99
  29  0.089  0.273  0.546-  45 1.99  46 1.99
  30  0.589  0.273  0.546-  45 1.99  46 1.99
  31  0.089  0.773  0.000-  35 1.99  36 1.99
  32  0.589  0.773  0.000-  35 1.99  36 1.99
  33  0.089  0.273  0.056-   7 1.94   2 1.99   1 1.99   4 1.99   3 1.99  34 3.11  34 3.11
  34  0.589  0.273  0.056-   8 1.94   2 1.99   1 1.99   4 1.99   3 1.99  33 3.11  33 3.11
  35  0.339  0.773  0.056-   3 1.94   1 1.94   5 1.99   6 1.99  31 1.99  32 1.99  36 3.11  36 3.11

  36  0.839  0.773  0.056-   4 1.94   2 1.94   5 1.99   6 1.99  31 1.99  32 1.99  35 3.11  35 3.11

[...]

  47  0.089  0.773  0.490-  21 1.94  25 1.99  26 1.99  27 1.99  28 1.99  48 3.11  48 3.11
  48  0.589  0.773  0.490-  22 1.94  25 1.99  26 1.99  27 1.99  28 1.99  47 3.11  47 3.11

IMPORTANT INFORMATION: All symmetrisations will be switched off!
NOSYMM: (Re-)initialisation of all symmetry stuff for point group C_1.

 KPOINTS: mesh auto

Automatic generation of k-mesh.
Space group operators:
 irot       det(A)        alpha          n_x          n_y          n_z        tau_x        tau_y        tau_z
    1     1.000000     0.000000     1.000000     0.000000     0.000000     0.000000     0.000000     0.000000

 Subroutine IBZKPT returns following result:

 Found     10 irreducible k-points:

 Following reciprocal coordinates:
            Coordinates               Weight
  0.000000  0.000000  0.000000      1.000000
  0.250000  0.000000  0.000000      2.000000
  0.500000  0.000000  0.000000      1.000000
  0.000000  0.250000  0.000000      2.000000
  0.250000  0.250000  0.000000      2.000000
  0.500000  0.250000  0.000000      2.000000
 -0.250000  0.250000  0.000000      2.000000
  0.000000  0.500000  0.000000      1.000000
  0.250000  0.500000  0.000000      2.000000
  0.500000  0.500000  0.000000      1.000000

 Following cartesian coordinates:
            Coordinates               Weight
  0.000000  0.000000  0.000000      1.000000
  0.000000  0.000000  0.040170      2.000000
  0.000000  0.000000  0.080340      1.000000
  0.027801 -0.027801  0.000000      2.000000
  0.027801 -0.027801  0.040170      2.000000
  0.027801 -0.027801  0.080340      2.000000
  0.027801 -0.027801 -0.040170      2.000000
  0.055601 -0.055601  0.000000      1.000000
  0.055601 -0.055601  0.040170      2.000000
  0.055601 -0.055601  0.080340      1.000000

 I would recommend the setting:
   dimension x,y,z NGX =    45 NGY =   46 NGZ =  161
 SYSTEM =  RuO2_suf110
 POSCAR =  AutoCreatByScript

 Startparameter for this run:
   NWRITE =      2    write-flag & timer
   PREC   = accura    normal or accurate (medium, high low for compatibility)
   ISTART =      0    job   : 0-new  1-cont  2-samecut
   ICHARG =      2    charge: 1-file 2-atom 10-const
   ISPIN  =      2    spin polarized calculation?
   LNONCOLLINEAR =      F non collinear calculations
   LSORBIT =      F    spin-orbit coupling
   INIWAV =      1    electr: 0-lowe 1-rand  2-diag
   LASPH  =      F    aspherical Exc in radial PAW
   METAGGA=      F    non-selfconsistent MetaGGA calc.

 Electronic Relaxation 1
   ENCUT  =  500.0 eV  36.75 Ry    6.06 a.u.  11.35 11.59 40.13*2*pi/ulx,y,z
   ENINI  =  500.0     initial cutoff
   ENAUG  =  605.4 eV  augmentation charge cutoff
   NELM   =    300;   NELMIN=  3; NELMDL= -5     # of ELM steps
   EDIFF  = 0.1E-03   stopping-criterion for ELM
   LREAL  =      T    real-space projection
   NLSPLINE    = F    spline interpolate recip. space projectors
   LCOMPAT=      F    compatible to vasp.4.4
   GGA_COMPAT  = T    GGA compatible to vasp.4.4-vasp.4.6
   LMAXPAW     = -100 max onsite density
   LMAXMIX     =    2 max onsite mixed and CHGCAR
   VOSKOWN=      0    Vosko Wilk Nusair interpolation
   ROPT   =   -0.00025  -0.00025
 Ionic relaxation
   EDIFFG = -.5E-01   stopping-criterion for IOM
   NSW    =    800    number of steps for IOM
   NBLOCK =      1;   KBLOCK =    800    inner block; outer block
   IBRION =      2    ionic relax: 0-MD 1-quasi-New 2-CG
   NFREE  =      1    steps in history (QN), initial steepest desc. (CG)
   ISIF   =      2    stress and relaxation
   IWAVPR =     11    prediction:  0-non 1-charg 2-wave 3-comb
   ISYM   =      0    0-nonsym 1-usesym 2-fastsym
   LCORR  =      T    Harris-Foulkes like correction to forces

   POTIM  = 0.1000    time-step for ionic-motion
   TEIN   =    0.0    initial temperature
   TEBEG  =    0.0;   TEEND  =   0.0 temperature during run
   SMASS  =  -3.00    Nose mass-parameter (am)
   estimated Nose-frequenzy (Omega)   =  0.10E-29 period in steps =****** mass=  -0.885E-27a.u.
   SCALEE = 1.0000    scale energy and forces
   NPACO  =    256;   APACO  = 16.0  distance and # of slots for P.C.
   PSTRESS=    0.0 pullay stress

  Mass of Ions in am
   POMASS =  16.00101.07
  Ionic Valenz
   ZVAL   =   6.00  8.00
  Atomic Wigner-Seitz radii
  virtual crystal weights
   VCA    =   1.00  1.00
   NELECT =     320.0000    total number of electrons
   NUPDOWN=      -1.0000    fix difference up-down

 DOS related values:
   EMIN   =  10.00;   EMAX   =-10.00  energy-range for DOS
   EFERMI =   0.00
   ISMEAR =     0;   SIGMA  =   0.05  broadening in eV -4-tet -1-fermi 0-gaus

 Electronic relaxation 2 (details)
   IALGO  =     68    algorithm
   LDIAG  =      T    sub-space diagonalisation (order eigenvalues)
   LSUBROT=      F    optimize rotation matrix (better conditioning)
   TURBO    =      0    0=normal 1=particle mesh
   IRESTART =      0    0=no restart 2=restart with 2 vectors
   NREBOOT  =      0    no. of reboots
   NMIN     =      0    reboot dimension
   EREF     =   0.00    reference energy to select bands
   IMIX   =      4    mixing-type and parameters
     AMIX     =   0.40;   BMIX     =  1.00
     AMIX_MAG =   1.60;   BMIX_MAG =  1.00
     AMIN     =   0.10
     WC   =   100.;   INIMIX=   1;  MIXPRE=   1;  MAXMIX= -45

 Intra band minimization:
   WEIMIN = 0.0010     energy-eigenvalue tresh-hold
   EBREAK =  0.12E-06  absolut break condition
   DEPER  =   0.30     relativ break condition

   TIME   =   0.40     timestep for ELM

  volume/ion in A,a.u.               =      18.14       122.45
  Fermi-wavevector in a.u.,A,eV,Ry     =   1.172540  2.215778 18.705956  1.374849
  Thomas-Fermi vector in A             =   2.308967

 Write flags
   LWAVE  =      F    write WAVECAR
   LCHARG =      F    write CHGCAR
   LVTOT  =      F    write LOCPOT, total local potential
   LVHAR  =      F    write LOCPOT, Hartree potential only
   LELF   =      F    write electronic localiz. function (ELF)
   LORBIT =      0    0 simple, 1 ext, 2 COOP (PROOUT)

 Dipole corrections
   LMONO  =      F    monopole corrections only (constant potential shift)
   LDIPOL =      F    correct potential (dipole corrections)
   IDIPOL =      0    1-x, 2-y, 3-z, 4-all directions
   EPSILON=  1.0000000 bulk dielectric constant

 Exchange correlation treatment:
   GGA     =    --    GGA type
   VOSKOWN=      0    Vosko Wilk Nusair interpolation
   LHFCALC =     F    Hartree Fock is set to
   LHFONE  =     F    Hartree Fock one center treatment
   AEXX    =    0.0000 exact exchange contribution

 Linear response parameters
   LEPSILON=     F    determine dielectric tensor
   LRPA    =     F    only Hartree local field effects (RPA)
   LNABLA  =     F    use nabla operator in PAW spheres
   LVEL    =     F    velocity operator in full k-point grid
   LINTERFAST=   F  fast interpolation
   KINTER  =     0    interpolate to denser k-point grid
[...]
      31 -73.5738      32 -73.5738      33 -67.3161      34 -67.3178      35 -67.8116
      36 -67.8117      37 -67.6590      38 -67.6590      39 -67.5473      40 -67.5469
      41 -67.5765      42 -67.5760      43 -67.6395      44 -67.6395      45 -67.9197
      46 -67.9198      47 -67.5194      48 -67.5210

 E-fermi :   1.5992     XC(G=0):  -7.4044     alpha+bet : -7.6709

[...]

 spin component 2

[...]

 k-point    10 :       0.5000    0.5000    0.0000
  band No.  band energies     occupation
      1     -18.1689      1.00000
      2     -18.1684      1.00000
      3     -17.8865      1.00000
      4     -17.8863      1.00000
      5     -17.7592      1.00000
      6     -17.7591      1.00000
      7     -17.6411      1.00000
      8     -17.6410      1.00000
      9     -17.5773      1.00000
     10     -17.5773      1.00000
     11     -17.4797      1.00000
     12     -17.4796      1.00000
     13     -17.4750      1.00000
     14     -17.4749      1.00000
     15     -17.3889      1.00000
     16     -17.3888      1.00000
     17     -17.3238      1.00000
     18     -17.3236      1.00000
     19     -17.2900      1.00000
     20     -17.2899      1.00000
     21     -17.2610      1.00000
     22     -17.2609      1.00000
     23     -17.1898      1.00000
     24     -17.1897      1.00000
     25     -17.1716      1.00000
     26     -17.1715      1.00000
     27     -17.0468      1.00000
     28     -17.0467      1.00000
     29     -16.4891      1.00000
     30     -16.4888      1.00000
     31     -15.7298      1.00000
     32     -15.7298      1.00000
     33      -6.1461      1.00000
     34      -6.1456      1.00000
     35      -5.9048      1.00000
     36      -5.9047      1.00000
     37      -5.6590      1.00000
     38      -5.6589      1.00000
     39      -5.4478      1.00000
     40      -5.4477      1.00000
     41      -5.3720      1.00000
     42      -5.3717      1.00000
     43      -5.3653      1.00000
     44      -5.3653      1.00000
     45      -5.3611      1.00000
     46      -5.3611      1.00000
     47      -5.3528      1.00000
     48      -5.3525      1.00000
     49      -5.2440      1.00000
     50      -5.2439      1.00000
     51      -5.2305      1.00000
     52      -5.2304      1.00000
     53      -5.0473      1.00000
     54      -5.0472      1.00000
     55      -5.0031      1.00000
     56      -5.0031      1.00000
     57      -4.9730      1.00000
     58      -4.9730      1.00000
     59      -4.8740      1.00000
     60      -4.8739      1.00000
[...]
    202       5.9806      0.00000
    203       6.0617      0.00000
    204       6.0619      0.00000
    205       6.2600      0.00000
    206       6.2601      0.00000
    207       6.3475      0.00000
    208       6.3477      0.00000
    209       7.6331      0.00000
    210       7.6334      0.00000
    211       7.7029      0.00000
    212       7.7032      0.00000
    213       8.6545      0.00000
    214       8.6545      0.00000
    215       8.8524      0.00000
    216       8.8525      0.00000

[...]

 soft charge-density along one line, spin component           2
         0         1         2         3         4         5         6         7         8         9
 total charge-density along one line

------------------------ aborting loop because EDIFF is reached ----------------------------------------

         DFTD3 V3.0 Rev 1
 Edisp (eV)   -8.89654

 E6    (eV) :    -5.4601
 E8    (eV) :    -3.4364
 % E8        : 38.63

  FORCE on cell =-STRESS in cart. coord.  units (eV):
  Direction    XX          YY          ZZ          XY          YZ          ZX
  Alpha Z   609.44297   609.44297   609.44297
  Ewald   -7143.44505 -7143.80111 74721.66620-79436.70833     0.01024    -0.02349
  Hartree  1163.75951  1163.65551 79464.89773-77240.29622     0.00938    -0.00194
  E(xc)   -1560.29841 -1560.29975 -1559.79182    -0.10350     0.00008     0.00021
  Local     840.22450   840.66738************156689.24972    -0.01732     0.02755
  n-local  -538.41593  -538.40947  -503.69698   -17.68080    -0.00926     0.00975
  augment   926.83700   926.84513   935.60896    -1.44469     0.00070     0.00073
  Kinetic  5708.97922  5709.01371  5602.02368     1.90878     0.00163     0.00160
  Fock        0.00000     0.00000     0.00000     0.00000     0.00000     0.00000
  vdW        -8.29996    -8.29994    -9.05130     0.87921    -0.00000     0.00000
  Total      -1.21615    -1.18557   -10.02551    -4.19584    -0.00456     0.01442
  in kB      -2.23720    -2.18095   -18.44272    -7.71858    -0.00838     0.02652

 VOLUME and BASIS-vectors are now :
  energy-cutoff  :      500.00
  volume of cell :      870.95
      direct lattice vectors                 reciprocal lattice vectors
     0.000000000  0.000000000  6.223582370     0.000000000  0.000000000  0.160679162
     4.496294280 -4.496294280  0.000000000     0.111202686 -0.111202686  0.000000000
    15.562049780 15.562049780  0.000000000     0.032129444  0.032129444  0.000000000

  length of vectors
     6.223582370  6.358720351 22.008061857     0.160679162  0.157264346  0.045437895

 FORCES acting on ions
    electron-ion (+dipol)            ewald-force                    non-local-force                 convergence-correction
   0.977E+03 0.991E+03 0.374E-01   -.977E+03 -.990E+03 -.686E-05   0.431E+00 -.189E+01 0.816E-04   0.427E+00 0.218E+00 -.389E-01
   0.977E+03 0.991E+03 -.374E-01   -.977E+03 -.990E+03 0.179E-05   0.431E+00 -.189E+01 -.357E-03   0.427E+00 0.218E+00 0.389E-01
   0.991E+03 0.977E+03 0.374E-01   -.990E+03 -.977E+03 0.613E-06   -.189E+01 0.435E+00 0.249E-02   0.218E+00 0.427E+00 -.389E-01
   0.991E+03 0.977E+03 -.374E-01   -.990E+03 -.977E+03 -.601E-05   -.189E+01 0.435E+00 0.205E-02   0.218E+00 0.427E+00 0.389E-01
   0.698E+03 0.698E+03 -.338E-03   -.699E+03 -.699E+03 -.488E-04   -.300E+00 -.305E+00 0.204E-02   0.684E+00 0.685E+00 0.335E-03
   0.698E+03 0.698E+03 0.195E-03   -.699E+03 -.699E+03 0.193E-03   -.300E+00 -.305E+00 0.203E-02   0.695E+00 0.696E+00 -.442E-03
   0.608E+03 0.608E+03 0.522E-03   -.607E+03 -.607E+03 -.276E-03   -.150E+01 -.151E+01 0.503E-03   0.525E+00 0.524E+00 0.121E-03
   0.608E+03 0.608E+03 0.280E-04   -.607E+03 -.607E+03 0.378E-03   -.150E+01 -.150E+01 0.713E-03   0.557E+00 0.557E+00 -.197E-03
   0.349E+03 0.304E+03 -.366E-02   -.351E+03 -.303E+03 -.182E-02   0.816E+00 -.918E+00 0.118E-02   0.417E+00 0.293E+00 0.583E-02
   0.349E+03 0.304E+03 0.773E-02   -.351E+03 -.303E+03 -.237E-02   0.816E+00 -.918E+00 0.124E-02   0.417E+00 0.292E+00 -.582E-02
   0.304E+03 0.349E+03 -.306E-02   -.303E+03 -.351E+03 -.240E-02   -.917E+00 0.815E+00 0.722E-02   0.291E+00 0.416E+00 0.583E-02
   0.304E+03 0.349E+03 0.675E-02   -.303E+03 -.351E+03 -.139E-02   -.917E+00 0.814E+00 0.734E-02   0.291E+00 0.416E+00 -.582E-02
   0.488E+02 0.488E+02 -.156E-02   -.474E+02 -.474E+02 0.342E-02   -.133E+01 -.133E+01 -.250E-02   0.157E+00 0.154E+00 0.631E-03
   0.488E+02 0.488E+02 -.104E-01   -.474E+02 -.474E+02 0.148E-01   -.134E+01 -.133E+01 -.373E-02   0.166E+00 0.163E+00 -.962E-03
   -.526E+02 -.526E+02 0.265E-01   0.517E+02 0.518E+02 -.340E-01   0.895E+00 0.901E+00 0.935E-02   -.525E-01 -.478E-01 -.135E-02
   -.526E+02 -.526E+02 0.208E-01   0.517E+02 0.517E+02 -.261E-01   0.898E+00 0.905E+00 0.876E-02   -.606E-01 -.560E-01 -.286E-02
   -.312E+03 -.350E+03 -.126E-01   0.311E+03 0.351E+03 0.358E-02   0.818E+00 -.980E+00 0.265E-02   -.158E+00 -.211E+00 0.720E-02
   -.312E+03 -.350E+03 0.626E-02   0.311E+03 0.351E+03 -.334E-02   0.815E+00 -.977E+00 0.319E-02   -.158E+00 -.211E+00 -.660E-02
   -.350E+03 -.311E+03 0.109E-01   0.351E+03 0.311E+03 -.224E-01   -.980E+00 0.833E+00 0.694E-02   -.208E+00 -.160E+00 0.535E-02
   -.350E+03 -.312E+03 0.233E-01   0.351E+03 0.311E+03 -.207E-01   -.977E+00 0.830E+00 0.560E-02   -.208E+00 -.160E+00 -.853E-02
   -.598E+03 -.598E+03 0.346E-01   0.595E+03 0.595E+03 -.450E-01   0.306E+01 0.308E+01 0.108E-01   -.185E+00 -.178E+00 -.756E-03
   -.598E+03 -.598E+03 0.316E-01   0.595E+03 0.595E+03 -.402E-01   0.306E+01 0.308E+01 0.113E-01   -.219E+00 -.212E+00 -.256E-02
   -.701E+03 -.701E+03 -.105E-01   0.702E+03 0.702E+03 0.101E-01   0.398E-01 0.441E-01 -.200E-03   -.487E+00 -.496E+00 0.223E-02
   -.701E+03 -.701E+03 -.185E-01   0.702E+03 0.702E+03 0.229E-01   0.382E-01 0.422E-01 -.166E-02   -.498E+00 -.507E+00 -.140E-02
   -.997E+03 -.992E+03 0.144E-01   0.997E+03 0.995E+03 0.253E-01   0.340E+00 -.280E+01 -.625E-02   -.631E-02 -.413E+00 -.339E-01
   -.997E+03 -.992E+03 -.344E-01   0.997E+03 0.995E+03 0.512E-02   0.340E+00 -.280E+01 -.581E-02   -.521E-02 -.414E+00 0.365E-01
   -.992E+03 -.998E+03 0.115E-02   0.995E+03 0.997E+03 0.394E-01   -.280E+01 0.322E+00 -.480E-02   -.420E+00 -.753E-03 -.326E-01
   -.992E+03 -.998E+03 -.484E-01   0.995E+03 0.997E+03 0.202E-01   -.280E+01 0.322E+00 -.445E-02   -.421E+00 0.297E-03 0.378E-01
   -.120E+04 -.120E+04 -.540E-02   0.122E+04 0.122E+04 0.472E-02   -.164E+02 -.164E+02 0.126E-02   -.833E-01 -.849E-01 0.727E-03
   -.120E+04 -.120E+04 -.241E-02   0.122E+04 0.122E+04 0.332E-02   -.164E+02 -.164E+02 0.201E-02   -.807E-01 -.823E-01 -.166E-02
   0.120E+04 0.120E+04 -.288E-03   -.121E+04 -.121E+04 -.104E-04   0.164E+02 0.164E+02 0.205E-02   0.122E-01 0.122E-01 0.341E-03
   0.120E+04 0.120E+04 0.339E-03   -.121E+04 -.121E+04 0.112E-04   0.164E+02 0.164E+02 0.204E-02   0.846E-02 0.846E-02 -.326E-03
   0.138E+04 0.138E+04 -.148E-03   -.137E+04 -.137E+04 -.542E-04   -.436E+01 -.436E+01 0.230E-02   0.416E+00 0.416E+00 0.142E-03
   0.138E+04 0.138E+04 0.289E-04   -.137E+04 -.137E+04 0.586E-04   -.436E+01 -.436E+01 0.229E-02   0.416E+00 0.416E+00 -.136E-03
   0.128E+04 0.128E+04 0.928E-02   -.128E+04 -.128E+04 -.102E-04   0.300E-01 0.299E-01 0.236E-02   0.474E+00 0.474E+00 -.948E-02
   0.128E+04 0.128E+04 -.971E-02   -.128E+04 -.128E+04 -.369E-05   0.300E-01 0.299E-01 0.200E-02   0.474E+00 0.474E+00 0.950E-02
   0.436E+03 0.436E+03 0.674E-02   -.436E+03 -.436E+03 -.463E-03   -.531E+00 -.532E+00 0.329E-03   0.469E+00 0.468E+00 -.544E-02
   0.436E+03 0.436E+03 -.397E-02   -.436E+03 -.436E+03 -.805E-03   -.531E+00 -.532E+00 0.149E-02   0.469E+00 0.468E+00 0.538E-02
   0.437E+03 0.437E+03 -.696E-02   -.437E+03 -.437E+03 0.657E-02   -.203E+00 -.205E+00 0.355E-02   0.471E+00 0.472E+00 0.814E-04
   0.437E+03 0.437E+03 -.822E-02   -.437E+03 -.437E+03 0.854E-02   -.203E+00 -.205E+00 0.355E-02   0.476E+00 0.477E+00 -.585E-03
   -.443E+03 -.443E+03 0.838E-02   0.444E+03 0.444E+03 -.936E-02   -.199E+00 -.195E+00 0.357E-02   -.253E+00 -.266E+00 -.784E-04
   -.443E+03 -.443E+03 -.376E-01   0.444E+03 0.444E+03 0.434E-01   -.199E+00 -.194E+00 0.676E-02   -.256E+00 -.269E+00 -.681E-02
   -.431E+03 -.431E+03 -.275E-01   0.431E+03 0.431E+03 0.299E-01   0.356E+00 0.360E+00 0.604E-02   -.188E+00 -.175E+00 -.568E-02
   -.431E+03 -.431E+03 -.660E-01   0.431E+03 0.431E+03 0.687E-01   0.356E+00 0.360E+00 0.982E-02   -.188E+00 -.175E+00 -.596E-02
   -.128E+04 -.128E+04 0.122E-01   0.128E+04 0.128E+04 0.103E-02   -.135E+01 -.135E+01 0.490E-03   -.202E+00 -.213E+00 -.121E-01
   -.128E+04 -.128E+04 0.354E-01   0.128E+04 0.128E+04 -.453E-01   -.135E+01 -.135E+01 -.262E-02   -.201E+00 -.212E+00 0.112E-01
   -.134E+04 -.134E+04 0.268E-01   0.133E+04 0.133E+04 -.280E-01   0.482E+01 0.481E+01 -.122E-02   -.321E+00 -.313E+00 0.307E-02
   -.134E+04 -.134E+04 0.271E-01   0.133E+04 0.133E+04 -.277E-01   0.482E+01 0.481E+01 -.133E-02   -.324E+00 -.316E+00 0.237E-02
   0.560E+01 0.546E+01 -.658E-03   -.455E-12 0.205E-11 0.821E-14   -.956E+01 -.949E+01 0.103E+00   0.399E+01 0.400E+01 -.173E-01

 POSITION                                       TOTAL-FORCE (eV/Angst)
      1.22957      0.51697      2.11049        -0.099245     -0.775256     -0.003159
      1.22957      0.51697      5.22228        -0.099238     -0.775272     -0.000581
      2.97611     -1.22957      2.11049        -0.778944     -0.093546     -0.000788
      2.97611     -1.22957      5.22228        -0.778956     -0.093543      0.001786
      5.22426     -1.73118      0.55460         0.230717      0.227275      0.000225
      5.22426     -1.73118      3.66639         0.231113      0.227710      0.000211
      3.47772      1.01858      0.55460        -0.152208     -0.152649     -0.000891
      3.47772      1.01858      3.66639        -0.150421     -0.150857     -0.000839
      5.72587      0.51697      2.11049        -0.004123     -0.059038     -0.000229
      5.72587      0.51697      5.22228        -0.004136     -0.059046     -0.000987
      7.47241     -1.22957      2.11049        -0.059085     -0.004201      0.005819
      7.47241     -1.22957      5.22228        -0.059091     -0.004210      0.005114
      5.22426      2.76512      0.55460         0.254102      0.255677     -0.001778
      5.22426      2.76512      3.66639         0.254186      0.255693     -0.002025
      7.96283      1.00734      0.55441         0.000567      0.000411     -0.001277
      7.96286      1.00733      3.66620         0.000004      0.000200     -0.001141
      5.73330      5.01633      2.11014         0.023616     -0.002438     -0.000900
      5.73330      5.01633      5.22197         0.024243     -0.003032     -0.002242
      7.47476      3.27439      2.11027        -0.002438      0.024400     -0.000929
      7.47476      3.27438      5.22209        -0.002979      0.025010     -0.002097
      9.69379      2.73794      0.55444         0.030055      0.030215     -0.002054
      9.69379      2.73794      3.66621         0.028040      0.028104     -0.001617
      7.98989      5.53051      0.55435         0.007208      0.009670     -0.000135
      7.98989      5.53051      3.66615         0.006767      0.009159     -0.000438
     10.27939      5.03064      2.11055        -0.016928     -0.002130     -0.002215
     10.27938      5.03064      5.22238        -0.016980     -0.002017     -0.000329
     11.98711      3.32405      2.11046        -0.000614     -0.016579      0.001466
     11.98710      3.32405      5.22228        -0.000520     -0.016652      0.003383
      9.69690      7.23645      0.55441         0.027523      0.025166     -0.000453
      9.69691      7.23647      3.66620         0.026950      0.024588     -0.000492
      3.47772     -3.47772      0.55460         1.181563      1.177281      0.000331
      3.47772     -3.47772      3.66639         1.181645      1.177355      0.000305
      2.10284     -0.35630      0.55460         1.305430      1.307772      0.000480
      2.10284     -0.35630      3.66639         1.301637      1.303982      0.000485
      4.35099     -2.60445      2.11049        -1.539820     -1.538236      0.000392
      4.35099     -2.60445      5.22228        -1.539811     -1.538214      0.000031
      4.35099      1.89185      2.11049        -0.295953     -0.296008     -0.000593
      4.35099      1.89185      5.22228        -0.295893     -0.295957      0.000327
      6.59914     -0.35630      0.55460        -0.115067     -0.115967      0.001485
      6.59914     -0.35630      3.66639        -0.115218     -0.116235      0.001535
      6.61404      4.15526      0.55427         0.005790      0.008081      0.000758
      6.61405      4.15525      3.66597         0.005850      0.008731      0.003989
      8.83030      1.87519      2.11021         0.010190      0.008943      0.001019
      8.83031      1.87520      5.22192         0.010246      0.008886      0.004810
      8.91709      6.45746      2.11026        -0.005243     -0.006966     -0.000138
      8.91710      6.45747      5.22211        -0.005411     -0.007237     -0.003172
     11.02167      4.06592      0.55474        -0.006596     -0.011571     -0.001165
     11.02163      4.06589      3.66653        -0.002520     -0.007450     -0.001287
    total drift:                                0.036424     -0.029968      0.084518
  FORCES: max atom, RMS     0.042667    0.015131
  Number: max atom                21
  FORCE total and by dimension    0.104833    0.030215

  FREE ENERGIE OF THE ION-ELECTRON SYSTEM (eV)
  free  energy   TOTEN  =      -359.13032736 eV

  energy  without entropy=     -359.08515516  energy(sigma->0) =     -359.10774126

 d Force = 0.1090998E-02[ 0.462E-03, 0.172E-02]  d Energy = 0.1592153E-02-0.501E-03
 d Force = 0.3213516E+02[ 0.321E+02, 0.321E+02]  d Ewald  = 0.3213516E+02-0.175E-05

 Conjugate gradient step on ions:
 trial-energy change:   -0.001592  1 .order   -0.001091   -0.001720   -0.000462
  (g-gl).g = 0.378E-03      g.g   = 0.406E-03  gl.gl    = 0.453E-03
 g(Force)  = 0.406E-03   g(Stress)= 0.000E+00 ortho     =-0.125E-06
 gamma     =   0.83481
 trial     =   4.24102
 opt step  =   4.67018  (harmonic =   5.80036) maximal distance =0.00468687
 next E    =  -359.130351   (d E  =  -0.00162)

 reached required accuracy - stopping structural energy minimisation