vasp.5.4.1 08Jul2015 (build Apr 24 2014 00:09:29) complex standard with constrain (TS)
 executed on IBM of Center for Computational Chemistry date 2018.03.17  22:28:30

 INCAR:
 POTCAR:    PAW_PBE O 08Apr2002
 POTCAR:    PAW_PBE Pb 08Apr2002
 POTCAR:    PAW_PBE O 08Apr2002
   VRHFIN =O: s2p4

   TITEL  = PAW_PBE O 08Apr2002
   POMASS =   16.000; ZVAL   =    6.000    mass and valenz
   ENMAX  =  400.000; ENMIN  =  300.000 eV

 POTCAR:    PAW_PBE Pb 08Apr2002
   VRHFIN =Pb:

   TITEL  = PAW_PBE Pb 08Apr2002
   POMASS =  207.200; ZVAL   =    4.000    mass and valenz
   ENMAX  =   97.973; ENMIN  =   73.480 eV

 Optimization of the real space projectors (new method)

 maximal supplied QI-value         = 24.76
 optimisation between [QCUT,QGAM] = [ 11.39, 22.77] = [ 36.31,145.25] Ry
 Optimized for a Real-space Cutoff    1.10 Angstroem

   l    n(q)    QCUT    max X(q) W(low)/X(q) W(high)/X(q)  e(spline)
   0      7    11.387    20.381    0.22E-03    0.48E-03    0.18E-06
   0      7    11.387    15.268    0.22E-03    0.52E-03    0.19E-06
   1      7    11.387     5.964    0.22E-03    0.73E-03    0.24E-06
   1      7    11.387     5.382    0.19E-03    0.60E-03    0.21E-06
 Optimization of the real space projectors (new method)

 maximal supplied QI-value         = 12.09
 optimisation between [QCUT,QGAM] = [ 11.37, 22.86] = [ 36.19,146.31] Ry
 Optimized for a Real-space Cutoff    1.66 Angstroem

   l    n(q)    QCUT    max X(q) W(low)/X(q) W(high)/X(q)  e(spline)
   0     11    11.369   135.111    0.12E-03    0.69E-04    0.19E-05
   0     11    11.369   146.850    0.11E-03    0.65E-04    0.18E-05
   1     11    11.369   148.016    0.17E-03    0.32E-03    0.89E-06
   1     11    11.369   122.989    0.17E-03    0.32E-03    0.91E-06
   2     10    11.369     8.916    0.12E-03    0.45E-04    0.33E-06
  PAW_PBE O 08Apr2002                   :
  PAW_PBE Pb 08Apr2002                  :

 POSCAR: AutoCreatByScript
  positions in direct lattice
 exchange correlation table for  LEXCH =        8
   RHO(1)=    0.500       N(1)  =     2000
   RHO(2)=  100.500       N(2)  =     4000

 ion  position               nearest neighbor table
   1  0.366  0.055  0.000-  33 2.19  34 2.19
   2  0.866  0.055  0.000-  33 2.19  34 2.19
   3  0.116  0.362  0.058-  33 2.16  35 2.19  36 2.19
   4  0.616  0.362  0.058-  34 2.16  35 2.19  36 2.19
   5  0.116  0.747  0.058-  33 2.16  35 2.19  36 2.19
   6  0.616  0.747  0.058-  34 2.16  35 2.19  36 2.19
   7  0.366  0.055  0.116-  37 2.16  34 2.19  33 2.19
   8  0.866  0.055  0.116-  38 2.16  34 2.19  33 2.19
   9  0.366  0.555  0.151-  35 2.16  39 2.19  40 2.19
  10  0.866  0.555  0.151-  36 2.16  39 2.19  40 2.19
  11  0.116  0.247  0.209-  39 2.16  38 2.19  37 2.19
  12  0.616  0.247  0.209-  40 2.16  38 2.19  37 2.19
  13  0.116  0.862  0.209-  39 2.16  38 2.19  37 2.19
  14  0.616  0.862  0.209-  40 2.16  38 2.19  37 2.19
  15  0.366  0.555  0.268-  43 2.16  40 2.19  39 2.19
  16  0.866  0.555  0.268-  44 2.16  40 2.19  39 2.19
  17  0.366  0.055  0.302-  37 2.16  41 2.19  42 2.19
  18  0.866  0.055  0.302-  38 2.16  41 2.19  42 2.19
  19  0.116  0.362  0.360-  41 2.16  43 2.19  44 2.19
  20  0.616  0.362  0.360-  42 2.16  43 2.19  44 2.19
  21  0.116  0.747  0.360-  41 2.16  43 2.19  44 2.19
  22  0.616  0.747  0.360-  42 2.16  43 2.19  44 2.19
  23  0.366  0.055  0.419-  45 2.16  42 2.19  41 2.19
  24  0.866  0.055  0.419-  46 2.16  42 2.19  41 2.19
  25  0.366  0.555  0.453-  43 2.16  47 2.19  48 2.19
  26  0.866  0.555  0.453-  44 2.16  47 2.19  48 2.19
  27  0.116  0.247  0.512-  47 2.16  46 2.19  45 2.19
  28  0.616  0.247  0.512-  48 2.16  46 2.19  45 2.19
  29  0.116  0.862  0.512-  47 2.16  46 2.19  45 2.19
  30  0.616  0.862  0.512-  48 2.16  46 2.19  45 2.19
  31  0.366  0.555  0.570-  47 2.19  48 2.19
  32  0.866  0.555  0.570-  47 2.19  48 2.19
  33  0.116  0.055  0.058-   3 2.16   5 2.16   7 2.19   8 2.19   1 2.19   2 2.19  34 3.43  34 3.43
                            36 3.91  35 3.91  36 3.91  35 3.91  38 3.91  37 3.91
  34  0.616  0.055  0.058-   4 2.16   6 2.16   7 2.19   8 2.19   1 2.19   2 2.19  33 3.43  33 3.43
                            36 3.91  35 3.91  36 3.91  35 3.91  38 3.91  37 3.91
  35  0.366  0.555  0.058-   9 2.16   6 2.19   5 2.19   4 2.19   3 2.19  36 3.43  36 3.43  33 3.91
                            33 3.91  34 3.91  34 3.91  40 3.91  39 3.91
  36  0.866  0.555  0.058-  10 2.16   6 2.19   5 2.19   4 2.19   3 2.19  35 3.43  35 3.43  33 3.91
                            33 3.91  34 3.91  34 3.91  40 3.91  39 3.91
  37  0.366  0.055  0.209-   7 2.16  17 2.16  12 2.19  11 2.19  14 2.19  13 2.19  38 3.43  38 3.43
                            40 3.91  39 3.91  40 3.91  39 3.91  42 3.91  34 3.91  33 3.91  41 3.91
  38  0.866  0.055  0.209-   8 2.16  18 2.16  12 2.19  11 2.19  14 2.19  13 2.19  37 3.43  37 3.43
                            40 3.91  39 3.91  40 3.91  39 3.91  42 3.91  34 3.91  33 3.91  41 3.91
  39  0.116  0.555  0.209-  13 2.16  11 2.16  15 2.19  16 2.19   9 2.19  10 2.19  40 3.43  40 3.43
                            37 3.91  37 3.91  38 3.91  38 3.91  44 3.91  36 3.91  35 3.91  43 3.91
  40  0.616  0.555  0.209-  14 2.16  12 2.16  15 2.19  16 2.19   9 2.19  10 2.19  39 3.43  39 3.43
                            37 3.91  37 3.91  38 3.91  38 3.91  44 3.91  36 3.91  35 3.91  43 3.91
  41  0.116  0.055  0.360-  19 2.16  21 2.16  17 2.19  18 2.19  23 2.19  24 2.19  42 3.43  42 3.43
                            44 3.91  43 3.91  44 3.91  43 3.91  37 3.91  38 3.91  46 3.91  45 3.91
  42  0.616  0.055  0.360-  20 2.16  22 2.16  17 2.19  18 2.19  23 2.19  24 2.19  41 3.43  41 3.43
                            44 3.91  43 3.91  44 3.91  43 3.91  37 3.91  38 3.91  46 3.91  45 3.91
  43  0.366  0.555  0.360-  15 2.16  25 2.16  22 2.19  21 2.19  20 2.19  19 2.19  44 3.43  44 3.43
                            41 3.91  41 3.91  42 3.91  42 3.91  39 3.91  40 3.91  48 3.91  47 3.91
  44  0.866  0.555  0.360-  16 2.16  26 2.16  22 2.19  21 2.19  20 2.19  19 2.19  43 3.43  43 3.43
                            41 3.91  41 3.91  42 3.91  42 3.91  39 3.91  40 3.91  48 3.91  47 3.91
  45  0.366  0.055  0.512-  23 2.16  27 2.19  28 2.19  29 2.19  30 2.19  46 3.43  46 3.43  48 3.91
                            47 3.91  48 3.91  47 3.91  41 3.91  42 3.91
  46  0.866  0.055  0.512-  24 2.16  27 2.19  28 2.19  29 2.19  30 2.19  45 3.43  45 3.43  48 3.91
                            47 3.91  48 3.91  47 3.91  41 3.91  42 3.91
  47  0.116  0.555  0.512-  29 2.16  27 2.16  31 2.19  32 2.19  25 2.19  26 2.19  48 3.43  48 3.43
                            45 3.91  45 3.91  46 3.91  46 3.91  43 3.91  44 3.91
  48  0.616  0.555  0.512-  30 2.16  28 2.16  31 2.19  32 2.19  25 2.19  26 2.19  47 3.43  47 3.43
                            45 3.91  45 3.91  46 3.91  46 3.91  43 3.91  44 3.91

IMPORTANT INFORMATION: All symmetrisations will be switched off!
NOSYMM: (Re-)initialisation of all symmetry stuff for point group C_1.

 KPOINTS: mesh auto

Automatic generation of k-mesh.
Space group operators:
 irot       det(A)        alpha          n_x          n_y          n_z        tau_x        tau_y        tau_z
    1     1.000000     0.000000     1.000000     0.000000     0.000000     0.000000     0.000000     0.000000

 Subroutine IBZKPT returns following result:

 Found      5 irreducible k-points:

 Following reciprocal coordinates:
            Coordinates               Weight
  0.000000  0.000000  0.000000      1.000000
  0.333333  0.000000  0.000000      2.000000
  0.000000  0.333333  0.000000      2.000000
  0.333333  0.333333  0.000000      2.000000
 -0.333333  0.333333  0.000000      2.000000

 Following cartesian coordinates:
            Coordinates               Weight
  0.000000  0.000000  0.000000      1.000000
  0.000000  0.000000  0.048582      2.000000
  0.033550 -0.033550  0.000000      2.000000
  0.033550 -0.033550  0.048582      2.000000
  0.033550 -0.033550 -0.048582      2.000000

 I would recommend the setting:
   dimension x,y,z NGX =    50 NGY =   51 NGZ =  170
 SYSTEM =  PbO2_suf110_2x1x4_2fix
 POSCAR =  AutoCreatByScript

 Startparameter for this run:
   NWRITE =      2    write-flag & timer
   PREC   = accura    normal or accurate (medium, high low for compatibility)
   ISTART =      0    job   : 0-new  1-cont  2-samecut
   ICHARG =      2    charge: 1-file 2-atom 10-const
   ISPIN  =      2    spin polarized calculation?
   LNONCOLLINEAR =      F non collinear calculations
   LSORBIT =      F    spin-orbit coupling
   INIWAV =      1    electr: 0-lowe 1-rand  2-diag
   LASPH  =      F    aspherical Exc in radial PAW
   METAGGA=      F    non-selfconsistent MetaGGA calc.

 Electronic Relaxation 1
   ENCUT  =  500.0 eV  36.75 Ry    6.06 a.u.  12.51 12.81 42.38*2*pi/ulx,y,z
   ENINI  =  500.0     initial cutoff
   ENAUG  =  605.4 eV  augmentation charge cutoff
   NELM   =    300;   NELMIN=  3; NELMDL= -5     # of ELM steps
   EDIFF  = 0.1E-03   stopping-criterion for ELM
   LREAL  =      T    real-space projection
   NLSPLINE    = F    spline interpolate recip. space projectors
   LCOMPAT=      F    compatible to vasp.4.4
   GGA_COMPAT  = T    GGA compatible to vasp.4.4-vasp.4.6
   LMAXPAW     = -100 max onsite density
   LMAXMIX     =    2 max onsite mixed and CHGCAR
   VOSKOWN=      0    Vosko Wilk Nusair interpolation
   ROPT   =   -0.00025  -0.00025
 Ionic relaxation
   EDIFFG = -.5E-01   stopping-criterion for IOM
   NSW    =   1000    number of steps for IOM
   NBLOCK =      1;   KBLOCK =   1000    inner block; outer block
   IBRION =      2    ionic relax: 0-MD 1-quasi-New 2-CG
   NFREE  =      1    steps in history (QN), initial steepest desc. (CG)
   ISIF   =      2    stress and relaxation
   IWAVPR =     11    prediction:  0-non 1-charg 2-wave 3-comb
   ISYM   =      0    0-nonsym 1-usesym 2-fastsym
   LCORR  =      T    Harris-Foulkes like correction to forces

   POTIM  = 0.1000    time-step for ionic-motion
   TEIN   =    0.0    initial temperature
   TEBEG  =    0.0;   TEEND  =   0.0 temperature during run
   SMASS  =  -3.00    Nose mass-parameter (am)
   estimated Nose-frequenzy (Omega)   =  0.10E-29 period in steps =****** mass=  -0.108E-26a.u.
   SCALEE = 1.0000    scale energy and forces
   NPACO  =    256;   APACO  = 16.0  distance and # of slots for P.C.
   PSTRESS=    0.0 pullay stress

  Mass of Ions in am
   POMASS =  16.00207.20
  Ionic Valenz
   ZVAL   =   6.00  4.00
  Atomic Wigner-Seitz radii
  virtual crystal weights
   VCA    =   1.00  1.00
   NELECT =     256.0000    total number of electrons
   NUPDOWN=      -1.0000    fix difference up-down

 DOS related values:
   EMIN   =  10.00;   EMAX   =-10.00  energy-range for DOS
   EFERMI =   0.00
   ISMEAR =     0;   SIGMA  =   0.05  broadening in eV -4-tet -1-fermi 0-gaus

 Electronic relaxation 2 (details)
   IALGO  =     68    algorithm
   LDIAG  =      T    sub-space diagonalisation (order eigenvalues)
   LSUBROT=      F    optimize rotation matrix (better conditioning)
   TURBO    =      0    0=normal 1=particle mesh
   IRESTART =      0    0=no restart 2=restart with 2 vectors
   NREBOOT  =      0    no. of reboots
   NMIN     =      0    reboot dimension
[...]
      11 -74.9586      12 -74.9585      13 -74.9579      14 -74.9578      15 -74.8612
      16 -74.8605      17 -75.1008      18 -75.0960      19 -75.0955      20 -75.0953
      21 -75.0951      22 -75.0951      23 -75.2136      24 -75.2101      25 -74.7580
      26 -74.7623      27 -75.4703      28 -75.4705      29 -75.4693      30 -75.4693
      31 -74.4467      32 -74.4320      33 -46.9197      34 -46.9197      35 -47.9319
      36 -47.9319      37 -47.1414      38 -47.1404      39 -47.1345      40 -47.1344
      41 -47.3409      42 -47.3408      43 -47.2277      44 -47.2285      45 -47.7487
      46 -47.7482      47 -46.9255      48 -46.9257

 E-fermi :  -0.9293     XC(G=0):  -6.9031     alpha+bet : -6.4598

[...]

 spin component 2

[...]

 k-point     5 :      -0.3333    0.3333    0.0000
  band No.  band energies     occupation
      1     -19.1004      1.00000
      2     -18.9247      1.00000
      3     -18.7956      1.00000
      4     -18.6825      1.00000
      5     -18.5639      1.00000
      6     -18.5474      1.00000
      7     -18.3908      1.00000
      8     -18.3807      1.00000
      9     -18.3157      1.00000
     10     -18.2084      1.00000
     11     -18.1192      1.00000
     12     -18.1072      1.00000
     13     -18.0266      1.00000
     14     -17.9710      1.00000
     15     -17.8557      1.00000
     16     -17.6540      1.00000
     17     -17.6046      1.00000
     18     -17.4448      1.00000
     19     -17.3981      1.00000
     20     -17.3359      1.00000
     21     -17.2793      1.00000
     22     -17.2466      1.00000
     23     -17.1737      1.00000
     24     -17.1433      1.00000
     25     -17.1425      1.00000
     26     -17.0728      1.00000
     27     -16.9833      1.00000
     28     -16.9751      1.00000
     29     -16.6336      1.00000
     30     -16.4886      1.00000
     31     -16.3393      1.00000
     32     -16.1988      1.00000
     33      -9.0768      1.00000
     34      -8.9680      1.00000
     35      -8.9131      1.00000
     36      -8.6329      1.00000
     37      -8.5414      1.00000
     38      -8.4778      1.00000
     39      -8.2747      1.00000
     40      -8.0778      1.00000
     41      -8.0288      1.00000
     42      -7.9723      1.00000
     43      -7.6888      1.00000
     44      -7.4796      1.00000
     45      -7.4753      1.00000
     46      -7.4426      1.00000
     47      -6.8055      1.00000
     48      -6.3112      1.00000
     49      -5.7518      1.00000
     50      -5.4812      1.00000
     51      -5.3589      1.00000
     52      -5.2842      1.00000
     53      -5.2707      1.00000
     54      -5.1904      1.00000
     55      -5.0693      1.00000
     56      -4.9609      1.00000
     57      -4.9178      1.00000
     58      -4.9003      1.00000
     59      -4.7780      1.00000
     60      -4.7255      1.00000
[...]
    166       7.0947      0.00000
    167       7.3421      0.00000
    168       7.4361      0.00000
    169       7.5220      0.00000
    170       7.5288      0.00000
    171       7.5784      0.00000
    172       7.6037      0.00000
    173       7.6871      0.00000
    174       7.8272      0.00000
    175       7.8351      0.00000
    176       7.9177      0.00000
    177       8.0302      0.00000
    178       8.0730      0.00000
    179       8.1214      0.00000
    180       8.3326      0.00000

[...]

 soft charge-density along one line, spin component           2
         0         1         2         3         4         5         6         7         8         9
 total charge-density along one line

------------------------ aborting loop because EDIFF is reached ----------------------------------------

         DFTD3 V3.0 Rev 1
 Edisp (eV)   -8.49614

 E6    (eV) :    -4.8248
 E8    (eV) :    -3.6713
 % E8        : 43.21

  FORCE on cell =-STRESS in cart. coord.  units (eV):
  Direction    XX          YY          ZZ          XY          YZ          ZX
  Alpha Z   252.65462   252.65462   252.65462
  Ewald   -4030.70510 -4030.64258 32858.96487-36036.28188    -0.30499    -0.32899
  Hartree  1623.21237  1623.09115 36511.84517-34842.08152    -0.09806    -0.08677
  E(xc)   -1258.32937 -1258.33085 -1271.98606     1.33324     0.00817     0.00915
  Local   -1197.20030 -1197.12748-72828.61845 70864.97083     0.37468     0.38205
  n-local   -79.17896   -79.18568    51.28120   -14.84281    -0.08003    -0.11404
  augment    45.83079    45.82580    18.09031     1.68282     0.01068     0.01224
  Kinetic  4670.35139  4670.30611  4421.49225    12.17836     0.04296     0.05253
  Fock        0.00000     0.00000     0.00000     0.00000     0.00000     0.00000
  vdW        -8.07405    -8.07381    -8.70084     0.79962     0.00008     0.00008
  Total      18.56140    18.51727     5.02309   -12.24134    -0.04651    -0.07375
  in kB      26.54071    26.47761     7.18245   -17.50374    -0.06651    -0.10545

 VOLUME and BASIS-vectors are now :
  energy-cutoff  :      500.00
  volume of cell :     1120.49
      direct lattice vectors                 reciprocal lattice vectors
     0.000000000  0.000000000  6.861226510     0.000000000  0.000000000  0.145746537
     4.967737390 -4.967737390  0.000000000     0.100649443 -0.100649443  0.000000000
    16.436842470 16.436842470  0.000000000     0.030419468  0.030419468  0.000000000

  length of vectors
     6.861226510  7.025441591 23.245205544     0.145746537  0.142339807  0.043019624

 FORCES acting on ions
    electron-ion (+dipol)            ewald-force                    non-local-force                 convergence-correction
   0.698E+03 0.698E+03 0.339E-03   -.712E+03 -.712E+03 -.317E-04   0.140E+02 0.140E+02 -.268E-03   -.180E-01 -.180E-01 0.215E-06
   0.698E+03 0.698E+03 0.275E-03   -.712E+03 -.712E+03 0.285E-04   0.140E+02 0.140E+02 -.271E-03   -.174E-01 -.174E-01 0.614E-07
   0.584E+03 0.605E+03 0.183E-02   -.585E+03 -.601E+03 0.111E-03   0.198E+01 -.432E+01 0.109E-02   0.772E-02 -.151E-02 -.173E-02
   0.584E+03 0.605E+03 -.110E-02   -.585E+03 -.601E+03 -.912E-04   0.198E+01 -.432E+01 0.834E-03   0.772E-02 -.151E-02 0.173E-02
   0.605E+03 0.584E+03 0.174E-02   -.601E+03 -.585E+03 0.104E-03   -.432E+01 0.198E+01 -.597E-04   -.150E-02 0.772E-02 -.173E-02
   0.605E+03 0.584E+03 -.120E-02   -.601E+03 -.585E+03 -.840E-04   -.432E+01 0.198E+01 -.314E-03   -.150E-02 0.772E-02 0.173E-02
   0.417E+03 0.417E+03 0.959E-03   -.416E+03 -.416E+03 -.743E-03   0.152E+00 0.151E+00 -.159E-02   0.178E-01 0.178E-01 -.583E-06
   0.417E+03 0.417E+03 0.663E-05   -.416E+03 -.416E+03 0.163E-03   0.154E+00 0.153E+00 -.151E-02   0.159E-01 0.159E-01 -.204E-05
   0.361E+03 0.361E+03 0.104E-02   -.361E+03 -.361E+03 -.391E-03   0.327E+00 0.329E+00 -.108E-02   0.186E-01 0.186E-01 0.770E-06
   0.361E+03 0.361E+03 0.206E-03   -.361E+03 -.361E+03 0.222E-03   0.326E+00 0.328E+00 -.784E-03   0.182E-01 0.182E-01 -.792E-06
   0.175E+03 0.202E+03 -.164E-01   -.174E+03 -.203E+03 0.118E-01   -.854E+00 0.114E+01 0.708E-02   0.252E-01 0.210E-01 0.547E-03
   0.175E+03 0.202E+03 -.359E-02   -.174E+03 -.203E+03 0.558E-02   -.854E+00 0.114E+01 -.343E-03   0.252E-01 0.210E-01 -.572E-03
   0.202E+03 0.175E+03 -.155E-01   -.203E+03 -.174E+03 0.111E-01   0.114E+01 -.860E+00 0.663E-02   0.210E-01 0.252E-01 0.545E-03
   0.202E+03 0.175E+03 -.429E-02   -.203E+03 -.174E+03 0.633E-02   0.114E+01 -.860E+00 -.672E-03   0.210E-01 0.252E-01 -.570E-03
   0.210E+02 0.209E+02 -.102E-01   -.187E+02 -.186E+02 0.559E-02   -.190E+01 -.191E+01 0.636E-02   0.242E-01 0.239E-01 -.195E-04
   0.211E+02 0.209E+02 -.934E-02   -.187E+02 -.186E+02 0.440E-02   -.190E+01 -.192E+01 0.666E-02   0.239E-01 0.236E-01 0.140E-04
   -.420E+02 -.418E+02 0.112E-01   0.397E+02 0.397E+02 0.232E-01   0.222E+01 0.211E+01 -.357E-01   0.125E-01 0.123E-01 0.147E-03
   -.420E+02 -.418E+02 -.788E-02   0.398E+02 0.397E+02 0.425E-01   0.219E+01 0.208E+01 -.335E-01   0.157E-01 0.156E-01 0.227E-03
   -.195E+03 -.218E+03 0.293E-01   0.195E+03 0.219E+03 -.416E-01   0.175E+00 -.742E+00 0.875E-02   0.909E-02 0.171E-01 0.309E-02
   -.195E+03 -.218E+03 0.564E-02   0.195E+03 0.219E+03 -.140E-01   0.177E+00 -.745E+00 0.797E-02   0.920E-02 0.169E-01 -.187E-02
   -.218E+03 -.196E+03 0.231E-01   0.219E+03 0.195E+03 -.355E-01   -.781E+00 0.199E+00 0.922E-02   0.160E-01 0.940E-02 0.301E-02
   -.218E+03 -.196E+03 0.141E-01   0.219E+03 0.195E+03 -.247E-01   -.776E+00 0.196E+00 0.100E-01   0.159E-01 0.932E-02 -.168E-02
   -.369E+03 -.369E+03 0.627E-02   0.367E+03 0.367E+03 -.147E-01   0.133E+01 0.131E+01 0.809E-02   0.247E-01 0.250E-01 -.467E-03
   -.369E+03 -.369E+03 0.159E-01   0.367E+03 0.367E+03 -.223E-01   0.136E+01 0.135E+01 0.564E-02   0.280E-01 0.283E-01 -.766E-03
   -.412E+03 -.412E+03 -.501E-01   0.413E+03 0.413E+03 0.865E-01   -.311E+00 -.364E+00 -.316E-01   0.236E-01 0.234E-01 -.107E-02
   -.412E+03 -.412E+03 -.436E-01   0.412E+03 0.412E+03 0.850E-01   -.277E+00 -.319E+00 -.382E-01   0.469E-01 0.468E-01 -.431E-03
   -.582E+03 -.596E+03 -.184E-01   0.591E+03 0.599E+03 0.407E-01   -.867E+01 -.207E+01 0.291E-02   0.269E-01 -.106E-01 -.244E-01
   -.582E+03 -.596E+03 0.662E-01   0.591E+03 0.599E+03 -.963E-01   -.867E+01 -.207E+01 0.472E-02   0.274E-01 -.108E-01 0.229E-01
   -.596E+03 -.583E+03 -.336E-01   0.599E+03 0.591E+03 0.622E-01   -.209E+01 -.866E+01 -.274E-02   -.981E-02 0.258E-01 -.245E-01
   -.596E+03 -.583E+03 0.780E-01   0.599E+03 0.591E+03 -.108E+00   -.209E+01 -.866E+01 0.537E-02   -.966E-02 0.257E-01 0.227E-01
   -.674E+03 -.674E+03 -.175E-01   0.688E+03 0.688E+03 0.579E-02   -.148E+02 -.148E+02 0.112E-01   0.573E-02 0.718E-02 0.962E-04
   -.674E+03 -.674E+03 -.429E-02   0.689E+03 0.689E+03 -.155E-01   -.148E+02 -.148E+02 0.177E-01   0.472E-02 0.626E-02 -.516E-03
   0.380E+03 0.380E+03 0.242E-02   -.381E+03 -.381E+03 0.110E-03   0.533E+00 0.538E+00 0.181E-02   0.264E-02 0.264E-02 -.261E-02
   0.380E+03 0.380E+03 -.345E-02   -.381E+03 -.381E+03 -.819E-04   0.533E+00 0.538E+00 0.159E-02   0.264E-02 0.264E-02 0.261E-02
   0.423E+03 0.423E+03 -.191E-04   -.420E+03 -.420E+03 -.485E-04   -.248E+01 -.248E+01 -.105E-01   0.452E-03 0.450E-03 -.130E-06
   0.423E+03 0.423E+03 -.103E-03   -.420E+03 -.420E+03 0.420E-04   -.248E+01 -.248E+01 -.105E-01   0.154E-03 0.153E-03 -.169E-06
   0.124E+03 0.124E+03 0.205E-01   -.125E+03 -.125E+03 -.189E-01   0.538E+00 0.529E+00 -.103E-01   0.166E-01 0.166E-01 0.999E-05
   0.124E+03 0.124E+03 0.126E-01   -.125E+03 -.125E+03 -.117E-01   0.532E+00 0.523E+00 -.100E-01   0.153E-01 0.153E-01 0.743E-05
   0.127E+03 0.127E+03 -.189E-02   -.126E+03 -.126E+03 0.172E-03   -.593E-01 -.555E-01 -.113E-01   0.151E-01 0.151E-01 0.520E-04
   0.127E+03 0.127E+03 0.390E-04   -.126E+03 -.126E+03 -.306E-03   -.592E-01 -.555E-01 -.116E-01   0.151E-01 0.151E-01 -.523E-04
   -.136E+03 -.136E+03 0.109E+00   0.136E+03 0.136E+03 -.104E+00   0.445E+00 0.444E+00 -.318E-01   0.162E-01 0.164E-01 0.185E-02
   -.136E+03 -.136E+03 -.845E-01   0.136E+03 0.136E+03 0.865E-01   0.451E+00 0.441E+00 0.164E-01   0.162E-01 0.164E-01 -.172E-02
   -.136E+03 -.136E+03 -.530E-01   0.137E+03 0.137E+03 0.449E-01   -.470E+00 -.482E+00 0.385E-02   0.139E-01 0.136E-01 -.931E-04
   -.136E+03 -.136E+03 -.486E-01   0.137E+03 0.137E+03 0.404E-01   -.465E+00 -.474E+00 0.199E-02   0.153E-01 0.150E-01 -.128E-04
   -.380E+03 -.381E+03 -.432E-01   0.379E+03 0.379E+03 0.388E-01   0.157E+01 0.159E+01 0.568E-02   0.751E-02 0.698E-02 0.112E-03
   -.380E+03 -.381E+03 -.418E-01   0.379E+03 0.379E+03 0.377E-01   0.158E+01 0.159E+01 0.634E-02   0.130E-01 0.125E-01 -.651E-04
   -.359E+03 -.359E+03 -.133E+00   0.361E+03 0.361E+03 0.151E+00   -.181E+01 -.181E+01 0.443E-01   0.236E-01 0.242E-01 -.334E-01
   -.359E+03 -.359E+03 0.276E+00   0.361E+03 0.361E+03 -.281E+00   -.181E+01 -.181E+01 -.599E-01   0.237E-01 0.242E-01 0.334E-01
   0.276E+02 0.278E+02 0.303E-01   -.853E-12 0.182E-11 0.380E-13   -.282E+02 -.285E+02 -.102E+00   0.632E+00 0.632E+00 -.353E-02

 POSITION                                       TOTAL-FORCE (eV/Angst)
      0.27224     -0.27224      2.51062         0.119562      0.120643      0.001616
      0.27224     -0.27224      5.94124         0.118920      0.120000      0.001609
      2.75611     -0.84194      0.79532         0.305519     -1.042280      0.002882
      2.75611     -0.84194      4.22593         0.305520     -1.042282      0.002945
      4.67028     -2.75611      0.79532        -1.041577      0.305117      0.001638
      4.67028     -2.75611      4.22593        -1.041579      0.305118      0.001703
      2.18641      1.64193      2.51062         0.434269      0.434758      0.000201
      2.18641      1.64193      5.94124         0.434724      0.435210      0.000233
      5.23998     -0.27224      2.51062        -0.320152     -0.319443      0.001143
      5.23998     -0.27224      5.94124        -0.320407     -0.319696      0.001220
      4.67028      2.21163      0.79532         0.042265     -0.005617      0.004614
      4.67028      2.21163      4.22593         0.042233     -0.005874      0.002649
      7.72385     -0.84194      0.79532        -0.004451      0.039986      0.004303
      7.72385     -0.84194      4.22593        -0.004697      0.039974      0.002372
      7.15415      1.64193      2.51062         0.450657      0.451050      0.003273
      7.15415      1.64193      5.94124         0.450526      0.450880      0.003312
      5.25438      4.71215      2.51178         0.002069      0.001069      0.000519
      5.25419      4.71191      5.94218         0.011464      0.010554      0.002893
      7.75972      4.17222      0.79606        -0.000767      0.014837      0.001105
      7.75981      4.17223      4.22693        -0.002205      0.015559     -0.000705
      9.68626      2.24680      0.79609         0.015510      0.000013      0.001317
      9.68629      2.24681      4.22696         0.015244      0.000759     -0.000719
      7.20213      6.65766      2.51237         0.020121      0.018425      0.000801
      7.20217      6.65771      5.94314         0.015725      0.014042      0.000065
     10.28226      4.77231      2.51096         0.015170      0.015472      0.005252
     10.28304      4.77266      5.94171        -0.003220     -0.002697      0.004295
      9.89976      7.51020      0.79769        -0.009447     -0.022092      0.002310
      9.89972      7.51031      4.22857        -0.008099     -0.023619     -0.000976
     13.02137      4.38926      0.79770        -0.021534     -0.012272      0.002968
     13.02128      4.38923      4.22840        -0.021616     -0.012692     -0.000677
     12.24956      6.73941      2.51265        -0.018541     -0.018321      0.001189
     12.24961      6.73926      5.94323         0.000935      0.001083     -0.000933
      1.22932      0.68485      0.79532        -0.946903     -0.941198      0.003308
      1.22932      0.68485      4.22593        -0.946897     -0.941192      0.002244
      3.71319     -1.79902      2.51062         0.724257      0.721458     -0.009020
      3.71319     -1.79902      5.94124         0.724305      0.721506     -0.009018
      3.71319      3.16871      2.51062        -0.016762     -0.021029     -0.007131
      3.71319      3.16871      5.94124        -0.015164     -0.019429     -0.007576
      6.19706      0.68485      0.79532         0.245103      0.247424     -0.011400
      6.19706      0.68485      4.22593         0.245096      0.247448     -0.010348
      6.20140      5.65533      0.79760         0.001829      0.007011     -0.023399
      6.20142      5.65549      4.22697         0.003870      0.004095      0.018232
      8.73119      3.21742      2.51128        -0.010009     -0.017825     -0.002741
      8.73133      3.21751      5.94192        -0.013046     -0.019978     -0.004623
      8.71249      8.16877      2.51287         0.012866      0.021622      0.002966
      8.71231      8.16883      5.94348         0.011342      0.020747      0.003729
     11.32749      5.81662      0.79584        -0.001194     -0.000450      0.030234
     11.32737      5.81643      4.22872        -0.000834      0.002126     -0.029873
    total drift:                                0.007181     -0.009595     -0.075666
  FORCES: max atom, RMS     0.030261    0.015190
  Number: max atom                47
  FORCE total and by dimension    0.105242    0.030234

  FREE ENERGIE OF THE ION-ELECTRON SYSTEM (eV)
  free  energy   TOTEN  =      -260.44962035 eV

  energy  without entropy=     -260.43941569  energy(sigma->0) =     -260.44451802

 d Force =-0.4082859E-05[-0.167E-04, 0.853E-05]  d Energy =-0.1676817E-03 0.164E-03
 d Force = 0.1157703E+01[ 0.116E+01, 0.116E+01]  d Ewald  = 0.1157703E+01 0.681E-06

 reached required accuracy - stopping structural energy minimisation