vasp.5.4.1 08Jul2015 (build Apr 24 2014 00:09:29) complex standard with constrain (TS)
 executed on IBM of Center for Computational Chemistry date 2018.05.05  09:52:58

 INCAR:
 POTCAR:    PAW_PBE H 15Jun2001
 POTCAR:    PAW_PBE O 08Apr2002
 POTCAR:    PAW_PBE Ge 05Jan2001
 POTCAR:    PAW_PBE Ir 06Sep2000
 POTCAR:    PAW_PBE H 15Jun2001
   VRHFIN =H: ultrasoft test

   TITEL  = PAW_PBE H 15Jun2001
   POMASS =    1.000; ZVAL   =    1.000    mass and valenz
   ENMAX  =  250.000; ENMIN  =  200.000 eV

 POTCAR:    PAW_PBE O 08Apr2002
   VRHFIN =O: s2p4

   TITEL  = PAW_PBE O 08Apr2002
   POMASS =   16.000; ZVAL   =    6.000    mass and valenz
   ENMAX  =  400.000; ENMIN  =  300.000 eV

 POTCAR:    PAW_PBE Ge 05Jan2001
   VRHFIN =Ge: s2p2

   TITEL  = PAW_PBE Ge 05Jan2001
   POMASS =   72.610; ZVAL   =    4.000    mass and valenz
   ENMAX  =  173.807; ENMIN  =  130.355 eV

 POTCAR:    PAW_PBE Ir 06Sep2000
   VRHFIN =Ir: s1d8

   TITEL  = PAW_PBE Ir 06Sep2000
   POMASS =  192.220; ZVAL   =    9.000    mass and valenz
   ENMAX  =  210.864; ENMIN  =  158.148 eV

 Optimization of the real space projectors (new method)

 maximal supplied QI-value         = 34.20
 optimisation between [QCUT,QGAM] = [ 11.29, 22.57] = [ 35.68,142.71] Ry
 Optimized for a Real-space Cutoff    1.20 Angstroem

   l    n(q)    QCUT    max X(q) W(low)/X(q) W(high)/X(q)  e(spline)
   0      8    11.287    19.460    0.22E-03    0.50E-03    0.19E-06
   0      8    11.287    12.209    0.21E-03    0.48E-03    0.18E-06
   1      8    11.287     4.655    0.21E-03    0.11E-04    0.26E-06
 Optimization of the real space projectors (new method)

[...]

   l    n(q)    QCUT    max X(q) W(low)/X(q) W(high)/X(q)  e(spline)
   0      9    11.376    65.336    0.20E-03    0.13E-03    0.49E-07
   0      9    11.376    52.220    0.20E-03    0.13E-03    0.49E-07
   1      8    11.376    36.409    0.18E-03    0.14E-03    0.15E-06
   1      8    11.376    21.334    0.18E-03    0.13E-03    0.15E-06
   2      8    11.376     4.673    0.22E-03    0.16E-03    0.38E-07
 Optimization of the real space projectors (new method)

 maximal supplied QI-value         = 14.36
 optimisation between [QCUT,QGAM] = [ 11.35, 22.84] = [ 36.05,146.02] Ry
 Optimized for a Real-space Cutoff    1.56 Angstroem

   l    n(q)    QCUT    max X(q) W(low)/X(q) W(high)/X(q)  e(spline)
   2     10    11.346   134.116    0.15E-03    0.19E-03    0.91E-06
   2     10    11.346   130.192    0.15E-03    0.19E-03    0.91E-06
   0     11    11.346    60.310    0.46E-04    0.13E-03    0.93E-06
   0     11    11.346    39.218    0.42E-04    0.12E-03    0.87E-06
   1     10    11.346    18.439    0.15E-03    0.81E-05    0.22E-06
   1     10    11.346    12.760    0.12E-03    0.76E-05    0.17E-06
  PAW_PBE H 15Jun2001                   :
  PAW_PBE O 08Apr2002                   :
  PAW_PBE Ge 05Jan2001                  :
  PAW_PBE Ir 06Sep2000                  :

 POSCAR: AutoCreatByScript
  positions in direct lattice
  velocities in cartesian coordinates
 exchange correlation table for  LEXCH =        8
   RHO(1)=    0.500       N(1)  =     2000
   RHO(2)=  100.500       N(2)  =     4000

 ion  position               nearest neighbor table
   1  0.631  0.070  0.592-  33 1.00
   2  0.131  0.570  0.000-  36 1.91  37 1.91
   3  0.631  0.570  0.000-  36 1.91  37 1.91
   4  0.381  0.264  0.056-  34 1.91  35 1.91  36 1.93
   5  0.881  0.264  0.056-  34 1.91  35 1.91  37 1.93
   6  0.381  0.876  0.056-  34 1.91  35 1.91  36 1.93
   7  0.881  0.876  0.056-  34 1.91  35 1.91  37 1.93
   8  0.131  0.570  0.112-  36 1.91  37 1.91  40 1.93
   9  0.631  0.570  0.112-  36 1.91  37 1.91  41 1.93
  10  0.131  0.070  0.144-  38 1.91  39 1.91  34 1.93
  11  0.631  0.070  0.144-  38 1.91  39 1.91  35 1.93
  12  0.381  0.376  0.200-  40 1.91  41 1.91  38 1.93
  13  0.881  0.376  0.200-  40 1.91  41 1.91  39 1.93
  14  0.381  0.764  0.200-  40 1.91  41 1.91  38 1.93
  15  0.881  0.764  0.200-  40 1.91  41 1.91  39 1.93
  16  0.131  0.070  0.256-  38 1.91  39 1.91  42 2.00
  17  0.631  0.070  0.256-  38 1.91  39 1.91  43 2.00
  18  0.131  0.570  0.287-  45 1.88  44 1.88  40 1.91
  19  0.631  0.570  0.288-  44 1.88  45 1.88  41 1.94
  20  0.381  0.266  0.344-  43 1.92  44 1.92  42 1.92
  21  0.880  0.266  0.344-  43 1.92  45 1.92  42 1.92
  22  0.381  0.873  0.344-  43 1.92  44 1.92  42 1.92
  23  0.880  0.873  0.344-  43 1.92  45 1.92  42 1.92
  24  0.131  0.570  0.398-  48 1.85  44 1.90  45 1.90
  25  0.631  0.570  0.400-  49 1.91  45 1.96  44 1.96
  26  0.131  0.070  0.433-  42 1.89  47 2.01  46 2.01
  27  0.631  0.070  0.433-  43 1.89  46 2.02  47 2.02
  28  0.368  0.379  0.495-  48 1.86  46 1.96  49 1.96
  29  0.894  0.379  0.495-  48 1.86  47 1.96  49 1.96
  30  0.368  0.760  0.495-  48 1.86  46 1.96  49 1.96
  31  0.894  0.760  0.495-  48 1.86  47 1.96  49 1.96
  32  0.131  0.070  0.548-  46 1.84  47 1.84
  33  0.631  0.070  0.546-   1 1.00  47 1.84  46 1.84
  34  0.131  0.070  0.056-   4 1.91   5 1.91   6 1.91   7 1.91  10 1.93
  35  0.631  0.070  0.056-   4 1.91   5 1.91   6 1.91   7 1.91  11 1.93
  36  0.381  0.570  0.056-   8 1.91   9 1.91   2 1.91   3 1.91   6 1.93   4 1.93
  37  0.881  0.570  0.056-   8 1.91   9 1.91   2 1.91   3 1.91   7 1.93   5 1.93
  38  0.381  0.070  0.200-  10 1.91  11 1.91  16 1.91  17 1.91  12 1.93  14 1.93
  39  0.881  0.070  0.200-  10 1.91  11 1.91  16 1.91  17 1.91  13 1.93  15 1.93
  40  0.131  0.570  0.200-  18 1.91  15 1.91  14 1.91  13 1.91  12 1.91   8 1.93
  41  0.631  0.570  0.200-  14 1.91  15 1.91  12 1.91  13 1.91   9 1.93  19 1.94
  42  0.131  0.070  0.347-  26 1.89  23 1.92  20 1.92  22 1.92  21 1.92  16 2.00
  43  0.631  0.070  0.347-  27 1.89  21 1.92  23 1.92  22 1.92  20 1.92  17 2.00
  44  0.379  0.570  0.341-  19 1.88  18 1.88  24 1.90  20 1.92  22 1.92  25 1.96  45 2.90
  45  0.883  0.570  0.341-  19 1.88  18 1.88  24 1.90  21 1.92  23 1.92  25 1.96  44 2.90
  46  0.379  0.070  0.496-  33 1.84  32 1.84  28 1.96  30 1.96  26 2.01  27 2.02  47 2.90
  47  0.882  0.070  0.496-  33 1.84  32 1.84  31 1.96  29 1.96  26 2.01  27 2.02  46 2.90
  48  0.131  0.570  0.482-  24 1.85  28 1.86  31 1.86  29 1.86  30 1.86  49 2.92  49 2.93
  49  0.631  0.570  0.487-  25 1.91  29 1.96  31 1.96  30 1.96  28 1.96  48 2.92  48 2.93

IMPORTANT INFORMATION: All symmetrisations will be switched off!
NOSYMM: (Re-)initialisation of all symmetry stuff for point group C_1.

 KPOINTS: mesh auto

Automatic generation of k-mesh.
Space group operators:
 irot       det(A)        alpha          n_x          n_y          n_z        tau_x        tau_y        tau_z
    1     1.000000     0.000001     1.000000     0.000000     0.000000     0.000000     0.000000     0.000000

 Subroutine IBZKPT returns following result:

 Found     10 irreducible k-points:

 Following reciprocal coordinates:
            Coordinates               Weight
  0.000000  0.000000  0.000000      1.000000
  0.250000  0.000000  0.000000      2.000000
  0.500000  0.000000  0.000000      1.000000
  0.000000  0.250000  0.000000      2.000000
  0.250000  0.250000  0.000000      2.000000
  0.500000  0.250000  0.000000      2.000000
 -0.250000  0.250000  0.000000      2.000000
  0.000000  0.500000  0.000000      1.000000
  0.250000  0.500000  0.000000      2.000000
  0.500000  0.500000  0.000000      1.000000

 Following cartesian coordinates:
            Coordinates               Weight
  0.000000  0.000000  0.000000      1.000000
  0.000000  0.000000  0.042774      2.000000
  0.000000  0.000000  0.085548      1.000000
  0.027974 -0.027974  0.000000      2.000000
  0.027974 -0.027974  0.042774      2.000000
  0.027974 -0.027974  0.085548      2.000000
  0.027974 -0.027974 -0.042774      2.000000
  0.055947 -0.055947  0.000000      1.000000
  0.055947 -0.055947  0.042774      2.000000
  0.055947 -0.055947  0.085548      1.000000

 I would recommend the setting:
   dimension x,y,z NGX =    43 NGY =   46 NGZ =  160
 SYSTEM =  dopGeO2_Ir_Hab_sp2
 POSCAR =  AutoCreatByScript

 Startparameter for this run:
   NWRITE =      2    write-flag & timer
   PREC   = accura    normal or accurate (medium, high low for compatibility)
   ISTART =      0    job   : 0-new  1-cont  2-samecut
   ICHARG =      2    charge: 1-file 2-atom 10-const
   ISPIN  =      2    spin polarized calculation?
   LNONCOLLINEAR =      F non collinear calculations
   LSORBIT =      F    spin-orbit coupling
   INIWAV =      1    electr: 0-lowe 1-rand  2-diag
   LASPH  =      F    aspherical Exc in radial PAW
   METAGGA=      F    non-selfconsistent MetaGGA calc.

 Electronic Relaxation 1
   ENCUT  =  500.0 eV  36.75 Ry    6.06 a.u.  10.66 11.52 39.98*2*pi/ulx,y,z
   ENINI  =  500.0     initial cutoff
   ENAUG  =  605.4 eV  augmentation charge cutoff
   NELM   =    300;   NELMIN=  3; NELMDL= -5     # of ELM steps
   EDIFF  = 0.1E-03   stopping-criterion for ELM
   LREAL  =      T    real-space projection
   NLSPLINE    = F    spline interpolate recip. space projectors
   LCOMPAT=      F    compatible to vasp.4.4
   GGA_COMPAT  = T    GGA compatible to vasp.4.4-vasp.4.6
   LMAXPAW     = -100 max onsite density
   LMAXMIX     =    2 max onsite mixed and CHGCAR
   VOSKOWN=      0    Vosko Wilk Nusair interpolation
   ROPT   =   -0.00025  -0.00025  -0.00025  -0.00025
 Ionic relaxation
   EDIFFG = -.5E-01   stopping-criterion for IOM
   NSW    =   1000    number of steps for IOM
   NBLOCK =      1;   KBLOCK =   1000    inner block; outer block
   IBRION =      2    ionic relax: 0-MD 1-quasi-New 2-CG
   NFREE  =      1    steps in history (QN), initial steepest desc. (CG)
   ISIF   =      2    stress and relaxation
   IWAVPR =     11    prediction:  0-non 1-charg 2-wave 3-comb
   ISYM   =      0    0-nonsym 1-usesym 2-fastsym
   LCORR  =      T    Harris-Foulkes like correction to forces

   POTIM  = 0.1000    time-step for ionic-motion
   TEIN   =    0.0    initial temperature
   TEBEG  =    0.0;   TEEND  =   0.0 temperature during run
   SMASS  =  -3.00    Nose mass-parameter (am)
   estimated Nose-frequenzy (Omega)   =  0.10E-29 period in steps =****** mass=  -0.781E-27a.u.
   SCALEE = 1.0000    scale energy and forces
   NPACO  =    256;   APACO  = 16.0  distance and # of slots for P.C.
   PSTRESS=    0.0 pullay stress

  Mass of Ions in am
   POMASS =   1.00 16.00 72.61192.22
  Ionic Valenz
   ZVAL   =   1.00  6.00  4.00  9.00
  Atomic Wigner-Seitz radii
  virtual crystal weights
   VCA    =   1.00  1.00  1.00  1.00
   NELECT =     262.0000    total number of electrons
   NUPDOWN=      -1.0000    fix difference up-down

 DOS related values:
   EMIN   =  10.00;   EMAX   =-10.00  energy-range for DOS
   EFERMI =   0.00
   ISMEAR =     0;   SIGMA  =   0.05  broadening in eV -4-tet -1-fermi 0-gaus

 Electronic relaxation 2 (details)
   IALGO  =     68    algorithm
   LDIAG  =      T    sub-space diagonalisation (order eigenvalues)
   LSUBROT=      F    optimize rotation matrix (better conditioning)
   TURBO    =      0    0=normal 1=particle mesh
   IRESTART =      0    0=no restart 2=restart with 2 vectors
   NREBOOT  =      0    no. of reboots
   NMIN     =      0    reboot dimension
   EREF     =   0.00    reference energy to select bands
[...]
      46 -36.4047      47 -36.4055      48 -36.5712      49 -57.4909

 E-fermi :   1.1154     XC(G=0):  -7.2348     alpha+bet : -7.1059

[...]

 spin component 2

[...]

 k-point    10 :       0.5000    0.5000    0.0000
  band No.  band energies     occupation
      1     -20.1792      1.00000
      2     -20.0398      1.00000
      3     -20.0341      1.00000
      4     -20.0107      1.00000
      5     -19.9652      1.00000
      6     -19.7410      1.00000
      7     -19.6270      1.00000
      8     -19.5587      1.00000
      9     -19.4396      1.00000
     10     -19.2814      1.00000
     11     -19.1313      1.00000
     12     -19.0941      1.00000
     13     -18.9459      1.00000
     14     -18.9095      1.00000
     15     -18.8171      1.00000
     16     -18.8112      1.00000
     17     -18.1858      1.00000
     18     -18.1695      1.00000
     19     -18.1064      1.00000
     20     -17.9038      1.00000
     21     -17.7797      1.00000
     22     -17.7741      1.00000
     23     -17.7335      1.00000
     24     -17.7041      1.00000
     25     -17.6631      1.00000
     26     -17.6594      1.00000
     27     -17.5429      1.00000
     28     -17.5000      1.00000
     29     -17.2961      1.00000
     30     -16.6412      1.00000
     31     -15.6319      1.00000
     32     -15.6309      1.00000
     33      -9.4784      1.00000
     34      -9.4118      1.00000
     35      -9.3754      1.00000
     36      -9.2229      1.00000
     37      -9.0980      1.00000
     38      -8.8104      1.00000
     39      -8.5607      1.00000
     40      -8.4094      1.00000
     41      -8.3086      1.00000
     42      -8.0518      1.00000
     43      -8.0453      1.00000
     44      -7.9249      1.00000
     45      -7.8133      1.00000
     46      -7.5304      1.00000
     47      -7.4783      1.00000
     48      -7.4433      1.00000
     49      -6.9244      1.00000
     50      -6.8827      1.00000
     51      -6.7950      1.00000
     52      -6.7140      1.00000
     53      -6.6994      1.00000
     54      -6.6347      1.00000
     55      -6.5634      1.00000
     56      -6.4433      1.00000
     57      -6.4147      1.00000
     58      -6.3097      1.00000
     59      -6.1946      1.00000
     60      -6.1614      1.00000
[...]
    170       9.0185      0.00000
    171       9.0349      0.00000
    172       9.0807      0.00000
    173       9.1825      0.00000
    174       9.2070      0.00000
    175       9.3191      0.00000
    176       9.3702      0.00000
    177       9.3711      0.00000
    178       9.4983      0.00000
    179       9.5194      0.00000
    180       9.7201      0.00000
    181       9.7771      0.00000
    182       9.8593      0.00000
    183       9.9130      0.00000
    184       9.9706      0.00000

[...]

 soft charge-density along one line, spin component           2
         0         1         2         3         4         5         6         7         8         9
 total charge-density along one line

------------------------ aborting loop because EDIFF is reached ----------------------------------------

         DFTD3 V3.0 Rev 1
 Edisp (eV)   -8.31523

 E6    (eV) :    -5.2066
 E8    (eV) :    -3.1086
 % E8        : 37.38

  FORCE on cell =-STRESS in cart. coord.  units (eV):
  Direction    XX          YY          ZZ          XY          YZ          ZX
  Alpha Z   513.34608   513.34608   513.34608
  Ewald   -4800.44339 -4800.51944 50216.86381-53822.21554     0.07251     0.09552
  Hartree  1317.50255  1317.74117 53789.14386-52226.96183     0.02584     0.02478
  E(xc)   -1227.70693 -1227.70810 -1229.98354    -0.22112     0.00192     0.00177
  Local    -450.61902  -450.88676************106053.00706    -0.07313    -0.09219
  n-local  -499.23602  -499.23711  -413.64474    -9.41390    -0.00342    -0.00487
  augment   267.69542   267.70688   247.10464    -0.51710    -0.00528    -0.00589
  Kinetic  4893.98195  4894.11116  4631.70398    -0.48394    -0.01586    -0.02006
  Fock        0.00000     0.00000     0.00000     0.00000     0.00000     0.00000
  vdW        -7.81289    -7.81291    -8.52708     0.79691     0.00000    -0.00000
  Total       6.70776     6.74098     4.70263    -6.00946     0.00257    -0.00095
  in kB      13.26874    13.33446     9.30237   -11.88741     0.00509    -0.00188

 VOLUME and BASIS-vectors are now :
  energy-cutoff  :      500.00
  volume of cell :      809.95
      direct lattice vectors                 reciprocal lattice vectors
     0.000000000  0.000000000  5.844679380     0.000000000  0.000000000  0.171095784
     4.468476600 -4.468476600  0.000000000     0.111894958 -0.111894958  0.000000000
    15.506300460 15.506300460  0.000000000     0.032244958  0.032244958  0.000000000

  length of vectors
     5.844679380  6.319380211 21.929220413     0.171095784  0.158243367  0.045601256

 FORCES acting on ions
    electron-ion (+dipol)            ewald-force                    non-local-force                 convergence-correction
   -.209E+03 -.209E+03 0.208E-02   0.215E+03 0.215E+03 -.172E-02   -.594E+01 -.593E+01 -.848E-04   0.197E-03 0.159E-03 -.122E-03
   0.994E+03 0.994E+03 -.669E-05   -.101E+04 -.101E+04 -.276E-04   0.203E+02 0.203E+02 0.108E-03   -.669E-03 -.667E-03 -.127E-06
   0.994E+03 0.994E+03 -.630E-04   -.101E+04 -.101E+04 0.279E-04   0.203E+02 0.203E+02 0.109E-03   -.664E-03 -.661E-03 -.173E-06
   0.864E+03 0.835E+03 0.899E-03   -.857E+03 -.840E+03 0.678E-02   -.833E+01 0.609E+01 -.140E-01   0.405E-03 0.197E-03 0.124E-03
   0.864E+03 0.835E+03 -.101E-02   -.857E+03 -.840E+03 -.678E-02   -.833E+01 0.609E+01 0.111E-01   0.404E-03 0.196E-03 -.125E-03
   0.835E+03 0.864E+03 0.991E-03   -.840E+03 -.857E+03 0.672E-02   0.609E+01 -.832E+01 -.135E-01   0.191E-03 0.394E-03 0.124E-03
   0.835E+03 0.864E+03 -.104E-02   -.840E+03 -.857E+03 -.673E-02   0.609E+01 -.832E+01 0.116E-01   0.192E-03 0.395E-03 -.124E-03
   0.607E+03 0.607E+03 0.414E-03   -.605E+03 -.605E+03 -.407E-03   -.112E+01 -.112E+01 -.392E-02   0.283E-03 0.313E-03 -.460E-06
   0.607E+03 0.607E+03 -.582E-03   -.605E+03 -.605E+03 0.565E-03   -.111E+01 -.111E+01 -.388E-02   0.395E-03 0.429E-03 -.397E-06
   0.534E+03 0.534E+03 0.591E-03   -.538E+03 -.538E+03 -.625E-03   0.331E+01 0.331E+01 -.595E-03   0.394E-03 0.355E-03 -.435E-05
   0.534E+03 0.534E+03 -.754E-03   -.537E+03 -.537E+03 0.677E-03   0.313E+01 0.313E+01 -.543E-03   0.121E-02 0.116E-02 -.307E-06
   0.320E+03 0.280E+03 -.196E+00   -.324E+03 -.277E+03 0.194E+00   0.414E+01 -.319E+01 -.371E-03   -.239E-02 0.282E-03 0.168E-02
   0.320E+03 0.280E+03 0.202E+00   -.324E+03 -.277E+03 -.199E+00   0.414E+01 -.319E+01 -.157E-02   -.243E-02 0.245E-03 -.168E-02
   0.280E+03 0.320E+03 -.189E+00   -.277E+03 -.324E+03 0.187E+00   -.320E+01 0.414E+01 -.172E-02   0.207E-03 -.244E-02 0.170E-02
   0.280E+03 0.320E+03 0.196E+00   -.277E+03 -.324E+03 -.193E+00   -.320E+01 0.414E+01 -.188E-02   0.200E-03 -.246E-02 -.170E-02
   0.699E+02 0.699E+02 0.744E-02   -.660E+02 -.660E+02 -.647E-02   -.372E+01 -.371E+01 -.306E-02   -.273E-03 -.508E-03 0.780E-04
   0.687E+02 0.687E+02 -.346E-02   -.635E+02 -.635E+02 0.446E-02   -.503E+01 -.502E+01 -.270E-02   -.259E-03 -.442E-03 -.630E-04
   -.138E+02 -.138E+02 0.163E-01   0.934E+01 0.934E+01 -.216E-01   0.449E+01 0.450E+01 0.407E-02   -.508E-02 -.358E-02 0.204E-03
   -.135E+02 -.135E+02 -.255E-01   0.828E+01 0.828E+01 0.231E-01   0.524E+01 0.527E+01 0.231E-02   -.995E-02 -.958E-02 0.199E-04
   -.259E+03 -.236E+03 -.553E+00   0.262E+03 0.232E+03 0.348E-01   -.363E+01 0.335E+01 0.534E+00   -.919E-02 0.548E-02 -.730E-03
   -.259E+03 -.236E+03 0.526E+00   0.262E+03 0.232E+03 -.209E-03   -.363E+01 0.335E+01 -.541E+00   -.948E-02 0.561E-02 0.866E-04
   -.236E+03 -.259E+03 -.549E+00   0.232E+03 0.262E+03 0.362E-01   0.337E+01 -.365E+01 0.528E+00   0.569E-02 -.852E-02 -.823E-03
   -.236E+03 -.259E+03 0.539E+00   0.232E+03 0.262E+03 -.283E-01   0.337E+01 -.365E+01 -.526E+00   0.502E-02 -.928E-02 0.922E-04
   -.470E+03 -.470E+03 0.291E-01   0.470E+03 0.470E+03 -.384E-01   -.239E+00 -.194E+00 0.430E-02   0.326E-02 0.356E-02 0.174E-02
   -.436E+03 -.436E+03 0.413E-02   0.435E+03 0.435E+03 -.840E-02   0.683E+00 0.690E+00 0.683E-02   0.171E-02 0.234E-02 -.143E-02
   -.556E+03 -.556E+03 0.997E-02   0.554E+03 0.554E+03 0.854E-02   0.198E+01 0.200E+01 -.211E-01   -.731E-02 -.732E-02 0.931E-03
   -.570E+03 -.570E+03 -.226E-01   0.567E+03 0.567E+03 0.348E-01   0.358E+01 0.360E+01 -.105E-01   0.692E-02 0.645E-02 -.124E-02
   -.824E+03 -.864E+03 0.447E+02   0.824E+03 0.875E+03 -.436E+02   -.661E-01 -.107E+02 -.117E+01   -.436E-02 -.627E-02 0.556E-02
   -.824E+03 -.864E+03 -.447E+02   0.824E+03 0.875E+03 0.436E+02   -.814E-01 -.107E+02 0.115E+01   -.477E-02 -.674E-02 -.483E-02
   -.864E+03 -.823E+03 0.447E+02   0.875E+03 0.824E+03 -.435E+02   -.106E+02 -.713E-01 -.116E+01   -.467E-02 -.384E-02 0.514E-02
   -.864E+03 -.824E+03 -.447E+02   0.875E+03 0.824E+03 0.436E+02   -.107E+02 -.673E-01 0.115E+01   -.541E-02 -.474E-02 -.501E-02
   -.100E+04 -.100E+04 -.236E-01   0.103E+04 0.103E+04 0.206E-01   -.217E+02 -.216E+02 0.818E-03   -.461E-02 -.429E-02 0.882E-03
   -.967E+03 -.967E+03 0.207E-01   0.954E+03 0.954E+03 -.206E-01   0.137E+02 0.137E+02 0.117E-02   0.223E-01 0.216E-01 -.169E-02
   0.600E+03 0.600E+03 0.111E-03   -.596E+03 -.596E+03 -.621E-04   -.181E+01 -.181E+01 -.689E-03   0.155E-03 0.150E-03 0.148E-06
   0.600E+03 0.600E+03 -.184E-04   -.596E+03 -.596E+03 0.636E-04   -.183E+01 -.183E+01 -.689E-03   0.382E-03 0.377E-03 -.101E-06
   0.543E+03 0.543E+03 -.645E-02   -.547E+03 -.547E+03 0.490E-02   0.123E+01 0.123E+01 0.306E-03   0.277E-04 0.335E-04 -.603E-06
   0.543E+03 0.543E+03 0.666E-02   -.547E+03 -.547E+03 -.491E-02   0.123E+01 0.123E+01 -.124E-02   0.283E-04 0.334E-04 0.651E-06
   0.201E+03 0.201E+03 0.970E-01   -.201E+03 -.201E+03 0.149E+00   -.815E-01 -.784E-01 -.773E-01   0.362E-03 0.304E-03 0.125E-02
   0.201E+03 0.201E+03 -.963E-01   -.201E+03 -.201E+03 -.149E+00   -.815E-01 -.785E-01 0.776E-01   0.336E-03 0.294E-03 -.124E-02
   0.200E+03 0.200E+03 -.196E-02   -.201E+03 -.201E+03 0.167E-02   0.321E+00 0.322E+00 -.168E-05   -.151E-02 -.142E-02 0.723E-05
   0.199E+03 0.199E+03 -.890E-02   -.200E+03 -.200E+03 0.838E-02   0.461E+00 0.463E+00 0.111E-03   -.556E-03 -.497E-03 -.374E-05
   -.161E+03 -.161E+03 0.281E-01   0.161E+03 0.161E+03 -.256E-01   -.684E+00 -.684E+00 -.265E-02   0.641E-03 0.491E-03 0.189E-03
   -.173E+03 -.173E+03 0.149E-01   0.173E+03 0.173E+03 -.127E-01   0.283E+00 0.282E+00 -.305E-02   -.207E-02 -.223E-02 -.134E-03
   -.157E+03 -.158E+03 0.197E+01   0.157E+03 0.157E+03 -.181E+01   0.257E+00 0.256E+00 -.134E+00   0.133E-02 0.146E-02 0.752E-03
   -.157E+03 -.158E+03 -.196E+01   0.157E+03 0.157E+03 0.180E+01   0.257E+00 0.258E+00 0.133E+00   0.109E-02 0.118E-02 -.798E-03
   -.523E+03 -.523E+03 -.874E+01   0.524E+03 0.524E+03 0.530E+01   -.105E+01 -.105E+01 0.344E+01   0.366E-05 0.139E-03 0.204E-03
   -.523E+03 -.523E+03 0.879E+01   0.524E+03 0.524E+03 -.533E+01   -.105E+01 -.104E+01 -.345E+01   -.442E-04 0.116E-03 -.630E-04
   -.540E+03 -.540E+03 -.292E-01   0.539E+03 0.539E+03 0.313E-01   0.927E+00 0.926E+00 0.171E-02   0.157E-04 -.582E-04 0.895E-03
   -.127E+04 -.127E+04 0.369E-01   0.126E+04 0.126E+04 -.450E-01   0.356E+01 0.356E+01 0.772E-02   0.522E-02 0.478E-02 -.411E-02
   -.152E+02 -.153E+02 0.421E-01   -.114E-11 0.136E-11 0.527E-14   0.152E+02 0.153E+02 -.725E-01   -.171E-01 -.171E-01 -.429E-02

 POSITION                                       TOTAL-FORCE (eV/Angst)
      9.48476      8.85901      3.68762        -0.019632     -0.019295      0.000862
      2.54568     -2.54568      0.76455         0.788665      0.786932      0.000782
      2.54568     -2.54568      3.68689         0.788631      0.786898      0.000782
      2.04396     -0.31144      2.22572        -1.765137      0.412372     -0.005453
      2.04396     -0.31144      5.14806        -1.765136      0.412372      0.003875
      4.77992     -3.04740      2.22572         0.414103     -1.763001     -0.004928
      4.77992     -3.04740      5.14806         0.414104     -1.763001      0.004405
      4.27820     -0.81316      0.76455         1.132895      1.130220     -0.003204
      4.27820     -0.81316      3.68689         1.137134      1.134446     -0.003192
      2.54568      1.92279      0.76455        -0.214008     -0.217593      0.000075
      2.54568      1.92279      3.68689        -0.287148     -0.290685      0.000089
      4.77992      1.42107      2.22572        -0.001187      0.203089     -0.000045
      4.77992      1.42107      5.14806        -0.001013      0.203113      0.000585
      6.51244     -0.31144      2.22572         0.203383     -0.000760     -0.001081
      6.51244     -0.31144      5.14806         0.203409     -0.000603     -0.000053
      4.27820      3.65531      0.76455         0.172745      0.169676     -0.001300
      4.27820      3.65531      3.68689         0.239771      0.236059     -0.001069
      7.00819      1.91711      0.76434         0.004229      0.001960     -0.000288
      7.01311      1.92175      3.68661         0.012092      0.012303      0.000605
      6.52422      4.16380      2.23314         0.002815     -0.010957      0.015470
      6.52419      4.16386      5.14022         0.003253     -0.010777     -0.014744
      9.25445      1.43357      2.23342        -0.011513      0.002596      0.015564
      9.25452      1.43364      5.14020        -0.010819      0.004233     -0.014768
      8.71986      3.62802      0.76436        -0.026432     -0.026187     -0.002510
      8.73870      3.64769      3.68648        -0.005551     -0.007097      0.001837
      6.99646      6.37301      0.76498         0.002407      0.002336     -0.000909
      7.09650      6.47298      3.68735        -0.009383     -0.008321      0.001210
      9.36827      6.01287      2.13486         0.001806      0.014801     -0.004211
      9.36869      6.01343      5.24024         0.002397      0.015199      0.003891
     11.10475      4.27613      2.13480         0.012252      0.001506     -0.002800
     11.10501      4.27664      5.24042         0.015323      0.001341      0.004672
      8.80792      8.18362      0.76525         0.005790      0.006662     -0.000649
      8.79765      8.17327      3.68760         0.009454      0.010694      0.000301
      1.17770      0.55481      0.76455         1.834069      1.835977      0.000069
      1.17770      0.55481      3.68689         1.859965      1.861878      0.000065
      3.41194     -1.67942      2.22572        -2.274484     -2.271365     -0.000540
      3.41194     -1.67942      5.14806        -2.274486     -2.271368      0.001225
      3.41194      2.78905      2.22572         0.205194      0.208510      0.170420
      3.41194      2.78905      5.14806         0.205189      0.208491     -0.168046
      5.64618      0.55481      0.76455        -0.533484     -0.531819      0.000432
      5.64618      0.55481      3.68689        -0.551110     -0.549526      0.000288
      5.65214      5.03029      0.76446         0.006623      0.005205      0.000767
      5.68362      5.06141      3.68676         0.005886      0.005158     -0.000274
      7.85525      2.76485      2.22746         0.008753      0.007870      0.020830
      7.85527      2.76487      5.14578         0.008600      0.007777     -0.020944
      7.94759      7.32421      2.14946         0.006632      0.007731     -0.003403
      7.94758      7.32414      5.22571         0.005837      0.008647      0.003625
     10.02227      4.93057      0.76520         0.032760      0.033231      0.005397
     10.12093      5.02903      3.68782         0.004353      0.003071     -0.003711
    total drift:                               -0.001147      0.005566     -0.034709
  FORCES: max atom, RMS     0.046975    0.013648
  Number: max atom                48
  FORCE total and by dimension    0.095538    0.033231

  FREE ENERGIE OF THE ION-ELECTRON SYSTEM (eV)
  free  energy   TOTEN  =      -314.67208985 eV

  energy  without entropy=     -314.66656259  energy(sigma->0) =     -314.66932622

 d Force = 0.1323393E-03[ 0.104E-03, 0.161E-03]  d Energy = 0.1269677E-03 0.537E-05
 d Force = 0.1777156E+01[ 0.178E+01, 0.178E+01]  d Ewald  = 0.1777156E+01 0.656E-06

 Conjugate gradient step on ions:
 trial-energy change:   -0.000127  1 .order   -0.000132   -0.000161   -0.000104
  (g-gl).g = 0.941E-04      g.g   = 0.150E-03  gl.gl    = 0.457E-03
 g(Force)  = 0.150E-03   g(Stress)= 0.000E+00 ortho     = 0.174E-04
 gamma     =   0.20570
 trial     =   1.04836
 opt step  =   2.94175  (harmonic =   2.94175) maximal distance =0.00143330
 next E    =  -314.672189   (d E  =  -0.00023)

 reached required accuracy - stopping structural energy minimisation