vasp.5.4.1 08Jul2015 (build Apr 24 2014 00:09:29) complex standard with constrain (TS)
 executed on IBM of Center for Computational Chemistry date 2017.12.17  19:54:03

 INCAR:
 POTCAR:    PAW_PBE O 08Apr2002
 POTCAR:    PAW_PBE Ge 05Jan2001
 POTCAR:    PAW_PBE O 08Apr2002
   VRHFIN =O: s2p4

   TITEL  = PAW_PBE O 08Apr2002
   POMASS =   16.000; ZVAL   =    6.000    mass and valenz
   ENMAX  =  400.000; ENMIN  =  300.000 eV

 POTCAR:    PAW_PBE Ge 05Jan2001
   VRHFIN =Ge: s2p2

   TITEL  = PAW_PBE Ge 05Jan2001
   POMASS =   72.610; ZVAL   =    4.000    mass and valenz
   ENMAX  =  173.807; ENMIN  =  130.355 eV

 Optimization of the real space projectors (new method)

 maximal supplied QI-value         = 24.76
 optimisation between [QCUT,QGAM] = [ 11.39, 22.77] = [ 36.31,145.25] Ry
 Optimized for a Real-space Cutoff    1.10 Angstroem

   l    n(q)    QCUT    max X(q) W(low)/X(q) W(high)/X(q)  e(spline)
   0      7    11.387    20.381    0.22E-03    0.48E-03    0.18E-06
   0      7    11.387    15.268    0.22E-03    0.52E-03    0.19E-06
   1      7    11.387     5.964    0.22E-03    0.73E-03    0.24E-06
   1      7    11.387     5.382    0.19E-03    0.60E-03    0.21E-06
 Optimization of the real space projectors (new method)

 maximal supplied QI-value         = 16.25
 optimisation between [QCUT,QGAM] = [ 11.38, 22.75] = [ 36.24,144.96] Ry
 Optimized for a Real-space Cutoff    1.31 Angstroem

   l    n(q)    QCUT    max X(q) W(low)/X(q) W(high)/X(q)  e(spline)
   0      9    11.376    65.336    0.20E-03    0.13E-03    0.49E-07
   0      9    11.376    52.220    0.20E-03    0.13E-03    0.49E-07
   1      8    11.376    36.409    0.18E-03    0.14E-03    0.15E-06
   1      8    11.376    21.334    0.18E-03    0.13E-03    0.15E-06
   2      8    11.376     4.673    0.22E-03    0.16E-03    0.38E-07
  PAW_PBE O 08Apr2002                   :
  PAW_PBE Ge 05Jan2001                  :

 POSCAR: AutoCreatByScript
  positions in direct lattice
 exchange correlation table for  LEXCH =        8
   RHO(1)=    0.500       N(1)  =     2000
   RHO(2)=  100.500       N(2)  =     4000

 ion  position               nearest neighbor table
   1  0.131  0.570  0.000-  35 1.91  36 1.91
   2  0.631  0.570  0.000-  35 1.91  36 1.91
   3  0.381  0.264  0.056-  33 1.91  34 1.91  35 1.93
   4  0.881  0.264  0.056-  33 1.91  34 1.91  36 1.93
   5  0.381  0.876  0.056-  33 1.91  34 1.91  35 1.93
   6  0.881  0.876  0.056-  33 1.91  34 1.91  36 1.93
   7  0.131  0.570  0.112-  35 1.91  36 1.91  39 1.93
   8  0.631  0.570  0.112-  35 1.91  36 1.91  40 1.93
   9  0.131  0.070  0.144-  37 1.91  38 1.91  33 1.93
  10  0.631  0.070  0.144-  37 1.91  38 1.91  34 1.93
  11  0.381  0.376  0.200-  39 1.91  40 1.91  37 1.93
  12  0.881  0.376  0.200-  39 1.91  40 1.91  38 1.93
  13  0.381  0.764  0.200-  39 1.91  40 1.91  37 1.93
  14  0.881  0.764  0.200-  39 1.91  40 1.91  38 1.93
  15  0.131  0.070  0.256-  37 1.91  38 1.91  41 1.93
  16  0.631  0.070  0.256-  37 1.91  38 1.91  42 1.93
  17  0.131  0.570  0.288-  43 1.91  44 1.91  39 1.93
  18  0.631  0.570  0.288-  43 1.91  44 1.91  40 1.93
  19  0.381  0.264  0.344-  41 1.91  42 1.91  43 1.93
  20  0.881  0.264  0.344-  41 1.91  42 1.91  44 1.93
  21  0.381  0.876  0.344-  41 1.91  42 1.91  43 1.93
  22  0.881  0.876  0.344-  41 1.91  42 1.91  44 1.93
  23  0.131  0.570  0.400-  43 1.91  44 1.91  47 1.93
  24  0.631  0.570  0.400-  43 1.91  44 1.91  48 1.93
  25  0.131  0.070  0.432-  45 1.91  46 1.91  41 1.93
  26  0.631  0.070  0.432-  45 1.91  46 1.91  42 1.93
  27  0.381  0.376  0.488-  47 1.91  48 1.91  45 1.93
  28  0.881  0.376  0.488-  47 1.91  48 1.91  46 1.93
  29  0.381  0.764  0.488-  47 1.91  48 1.91  45 1.93
  30  0.881  0.764  0.488-  47 1.91  48 1.91  46 1.93
  31  0.131  0.070  0.544-  45 1.91  46 1.91
  32  0.631  0.070  0.544-  45 1.91  46 1.91
  33  0.131  0.070  0.056-   3 1.91   4 1.91   5 1.91   6 1.91   9 1.93
  34  0.631  0.070  0.056-   3 1.91   4 1.91   5 1.91   6 1.91  10 1.93
  35  0.381  0.570  0.056-   7 1.91   8 1.91   1 1.91   2 1.91   5 1.93   3 1.93
  36  0.881  0.570  0.056-   7 1.91   8 1.91   1 1.91   2 1.91   6 1.93   4 1.93
  37  0.381  0.070  0.200-   9 1.91  10 1.91  15 1.91  16 1.91  11 1.93  13 1.93
  38  0.881  0.070  0.200-   9 1.91  10 1.91  15 1.91  16 1.91  12 1.93  14 1.93
  39  0.131  0.570  0.200-  13 1.91  14 1.91  11 1.91  12 1.91   7 1.93  17 1.93
  40  0.631  0.570  0.200-  13 1.91  14 1.91  11 1.91  12 1.91   8 1.93  18 1.93
  41  0.131  0.070  0.344-  19 1.91  20 1.91  21 1.91  22 1.91  15 1.93  25 1.93
  42  0.631  0.070  0.344-  19 1.91  20 1.91  21 1.91  22 1.91  16 1.93  26 1.93
  43  0.381  0.570  0.344-  17 1.91  18 1.91  23 1.91  24 1.91  21 1.93  19 1.93
  44  0.881  0.570  0.344-  17 1.91  18 1.91  23 1.91  24 1.91  22 1.93  20 1.93
  45  0.381  0.070  0.488-  31 1.91  32 1.91  25 1.91  26 1.91  27 1.93  29 1.93
  46  0.881  0.070  0.488-  31 1.91  32 1.91  25 1.91  26 1.91  28 1.93  30 1.93
  47  0.131  0.570  0.488-  29 1.91  30 1.91  27 1.91  28 1.91  23 1.93
  48  0.631  0.570  0.488-  29 1.91  30 1.91  27 1.91  28 1.91  24 1.93

IMPORTANT INFORMATION: All symmetrisations will be switched off!
NOSYMM: (Re-)initialisation of all symmetry stuff for point group C_1.

 KPOINTS: mesh auto

Automatic generation of k-mesh.
Space group operators:
 irot       det(A)        alpha          n_x          n_y          n_z        tau_x        tau_y        tau_z
    1     1.000000     0.000001     1.000000     0.000000     0.000000     0.000000     0.000000     0.000000

 Subroutine IBZKPT returns following result:

 Found     10 irreducible k-points:

 Following reciprocal coordinates:
            Coordinates               Weight
  0.000000  0.000000  0.000000      1.000000
  0.250000  0.000000  0.000000      2.000000
  0.500000  0.000000  0.000000      1.000000
  0.000000  0.250000  0.000000      2.000000
  0.250000  0.250000  0.000000      2.000000
  0.500000  0.250000  0.000000      2.000000
 -0.250000  0.250000  0.000000      2.000000
  0.000000  0.500000  0.000000      1.000000
  0.250000  0.500000  0.000000      2.000000
  0.500000  0.500000  0.000000      1.000000

 Following cartesian coordinates:
            Coordinates               Weight
  0.000000  0.000000  0.000000      1.000000
  0.000000  0.000000  0.042774      2.000000
  0.000000  0.000000  0.085548      1.000000
  0.027974 -0.027974  0.000000      2.000000
  0.027974 -0.027974  0.042774      2.000000
  0.027974 -0.027974  0.085548      2.000000
  0.027974 -0.027974 -0.042774      2.000000
  0.055947 -0.055947  0.000000      1.000000
  0.055947 -0.055947  0.042774      2.000000
  0.055947 -0.055947  0.085548      1.000000

 I would recommend the setting:
   dimension x,y,z NGX =    43 NGY =   46 NGZ =  160
 SYSTEM =  GeO2_suf110_2x1x4_2fix
 POSCAR =  AutoCreatByScript

 Startparameter for this run:
   NWRITE =      2    write-flag & timer
   PREC   = accura    normal or accurate (medium, high low for compatibility)
   ISTART =      0    job   : 0-new  1-cont  2-samecut
   ICHARG =      2    charge: 1-file 2-atom 10-const
   ISPIN  =      2    spin polarized calculation?
   LNONCOLLINEAR =      F non collinear calculations
   LSORBIT =      F    spin-orbit coupling
   INIWAV =      1    electr: 0-lowe 1-rand  2-diag
   LASPH  =      F    aspherical Exc in radial PAW
   METAGGA=      F    non-selfconsistent MetaGGA calc.

 Electronic Relaxation 1
   ENCUT  =  500.0 eV  36.75 Ry    6.06 a.u.  10.66 11.52 39.98*2*pi/ulx,y,z
   ENINI  =  500.0     initial cutoff
   ENAUG  =  605.4 eV  augmentation charge cutoff
   NELM   =    300;   NELMIN=  3; NELMDL= -5     # of ELM steps
   EDIFF  = 0.1E-03   stopping-criterion for ELM
   LREAL  =      T    real-space projection
   NLSPLINE    = F    spline interpolate recip. space projectors
   LCOMPAT=      F    compatible to vasp.4.4
   GGA_COMPAT  = T    GGA compatible to vasp.4.4-vasp.4.6
   LMAXPAW     = -100 max onsite density
   LMAXMIX     =    2 max onsite mixed and CHGCAR
   VOSKOWN=      0    Vosko Wilk Nusair interpolation
   ROPT   =   -0.00025  -0.00025
 Ionic relaxation
   EDIFFG = -.5E-01   stopping-criterion for IOM
   NSW    =   1000    number of steps for IOM
   NBLOCK =      1;   KBLOCK =   1000    inner block; outer block
   IBRION =      2    ionic relax: 0-MD 1-quasi-New 2-CG
   NFREE  =      1    steps in history (QN), initial steepest desc. (CG)
   ISIF   =      2    stress and relaxation
   IWAVPR =     11    prediction:  0-non 1-charg 2-wave 3-comb
   ISYM   =      0    0-nonsym 1-usesym 2-fastsym
   LCORR  =      T    Harris-Foulkes like correction to forces

   POTIM  = 0.1000    time-step for ionic-motion
   TEIN   =    0.0    initial temperature
   TEBEG  =    0.0;   TEEND  =   0.0 temperature during run
   SMASS  =  -3.00    Nose mass-parameter (am)
   estimated Nose-frequenzy (Omega)   =  0.10E-29 period in steps =****** mass=  -0.781E-27a.u.
   SCALEE = 1.0000    scale energy and forces
   NPACO  =    256;   APACO  = 16.0  distance and # of slots for P.C.
   PSTRESS=    0.0 pullay stress

  Mass of Ions in am
   POMASS =  16.00 72.61
  Ionic Valenz
   ZVAL   =   6.00  4.00
  Atomic Wigner-Seitz radii
  virtual crystal weights
   VCA    =   1.00  1.00
   NELECT =     256.0000    total number of electrons
   NUPDOWN=      -1.0000    fix difference up-down

 DOS related values:
   EMIN   =  10.00;   EMAX   =-10.00  energy-range for DOS
   EFERMI =   0.00
   ISMEAR =     0;   SIGMA  =   0.05  broadening in eV -4-tet -1-fermi 0-gaus

 Electronic relaxation 2 (details)
   IALGO  =     68    algorithm
   LDIAG  =      T    sub-space diagonalisation (order eigenvalues)
   LSUBROT=      F    optimize rotation matrix (better conditioning)
   TURBO    =      0    0=normal 1=particle mesh
   IRESTART =      0    0=no restart 2=restart with 2 vectors
   NREBOOT  =      0    no. of reboots
   NMIN     =      0    reboot dimension
   EREF     =   0.00    reference energy to select bands
   IMIX   =      4    mixing-type and parameters
     AMIX     =   0.40;   BMIX     =  1.00
     AMIX_MAG =   1.60;   BMIX_MAG =  1.00
     AMIN     =   0.10
     WC   =   100.;   INIMIX=   1;  MIXPRE=   1;  MAXMIX= -45

 Intra band minimization:
   WEIMIN = 0.0010     energy-eigenvalue tresh-hold
   EBREAK =  0.14E-06  absolut break condition
   DEPER  =   0.30     relativ break condition

   TIME   =   0.40     timestep for ELM

  volume/ion in A,a.u.               =      16.87       113.87
  Fermi-wavevector in a.u.,A,eV,Ry     =   1.115155  2.107338 16.919816  1.243571
  Thomas-Fermi vector in A             =   2.251757

 Write flags
   LWAVE  =      F    write WAVECAR
   LCHARG =      F    write CHGCAR
   LVTOT  =      F    write LOCPOT, total local potential
   LVHAR  =      F    write LOCPOT, Hartree potential only
   LELF   =      F    write electronic localiz. function (ELF)
   LORBIT =      0    0 simple, 1 ext, 2 COOP (PROOUT)

 Dipole corrections
   LMONO  =      F    monopole corrections only (constant potential shift)
   LDIPOL =      F    correct potential (dipole corrections)
   IDIPOL =      0    1-x, 2-y, 3-z, 4-all directions
   EPSILON=  1.0000000 bulk dielectric constant

[...]
      11 -75.3106      12 -75.3106      13 -75.3108      14 -75.3108      15 -75.1461
      16 -75.1461      17 -75.7578      18 -75.7578      19 -75.4292      20 -75.4292
      21 -75.4290      22 -75.4290      23 -76.0563      24 -76.0563      25 -74.7043
      26 -74.7043      27 -75.8222      28 -75.8222      29 -75.8227      30 -75.8227
      31 -73.7258      32 -73.7258      33 -38.0089      34 -38.0089      35 -36.2507
      36 -36.2507      37 -37.1418      38 -37.1418      39 -37.0942      40 -37.0942
      41 -37.1302      42 -37.1302      43 -37.5483      44 -37.5483      45 -36.3505
      46 -36.3505      47 -37.7325      48 -37.7325

 E-fermi :   0.0497     XC(G=0):  -7.1481     alpha+bet : -7.0535

[...]

 spin component 2

[...]

 k-point    10 :       0.5000    0.5000    0.0000
  band No.  band energies     occupation
      1     -20.7415      1.00000
      2     -20.7415      1.00000
      3     -20.5048      1.00000
      4     -20.5048      1.00000
      5     -20.1747      1.00000
      6     -20.1747      1.00000
      7     -20.0160      1.00000
      8     -20.0160      1.00000
      9     -19.8237      1.00000
     10     -19.8237      1.00000
     11     -19.5768      1.00000
     12     -19.5768      1.00000
     13     -19.3845      1.00000
     14     -19.3845      1.00000
     15     -19.0273      1.00000
     16     -19.0273      1.00000
     17     -18.7622      1.00000
     18     -18.7622      1.00000
     19     -18.2241      1.00000
     20     -18.2241      1.00000
     21     -18.1920      1.00000
     22     -18.1920      1.00000
     23     -18.1348      1.00000
     24     -18.1348      1.00000
     25     -17.9228      1.00000
     26     -17.9228      1.00000
     27     -17.7648      1.00000
     28     -17.7648      1.00000
     29     -16.8477      1.00000
     30     -16.8477      1.00000
     31     -16.1637      1.00000
     32     -16.1637      1.00000
     33     -10.0525      1.00000
     34     -10.0525      1.00000
     35      -9.7573      1.00000
     36      -9.7573      1.00000
     37      -9.1049      1.00000
     38      -9.1049      1.00000
     39      -9.0611      1.00000
     40      -9.0611      1.00000
     41      -8.5500      1.00000
     42      -8.5500      1.00000
     43      -8.3916      1.00000
     44      -8.3916      1.00000
     45      -7.9922      1.00000
     46      -7.9922      1.00000
     47      -7.7125      1.00000
     48      -7.7125      1.00000
     49      -7.3635      1.00000
     50      -7.3635      1.00000
     51      -7.2346      1.00000
     52      -7.2346      1.00000
     53      -7.1321      1.00000
     54      -7.1321      1.00000
     55      -6.9323      1.00000
     56      -6.9323      1.00000
     57      -6.8063      1.00000
     58      -6.8063      1.00000
     59      -6.6109      1.00000
     60      -6.6109      1.00000
[...]
    166       8.6151      0.00000
    167       8.7508      0.00000
    168       8.7508      0.00000
    169       8.8505      0.00000
    170       8.8505      0.00000
    171       8.8568      0.00000
    172       8.8568      0.00000
    173       9.0128      0.00000
    174       9.0128      0.00000
    175       9.0326      0.00000
    176       9.0326      0.00000
    177       9.4281      0.00000
    178       9.4281      0.00000
    179       9.4377      0.00000
    180       9.4377      0.00000

[...]

 soft charge-density along one line, spin component           2
         0         1         2         3         4         5         6         7         8         9
 total charge-density along one line

------------------------ aborting loop because EDIFF is reached ----------------------------------------

         DFTD3 V3.0 Rev 1
 Edisp (eV)   -8.11160

 E6    (eV) :    -5.0855
 E8    (eV) :    -3.0261
 % E8        : 37.31

  FORCE on cell =-STRESS in cart. coord.  units (eV):
  Direction    XX          YY          ZZ          XY          YZ          ZX
  Alpha Z   475.87937   475.87937   475.87937
  Ewald   -4601.72786 -4601.81779 49469.75200-52928.28272     0.10028     0.05082
  Hartree  1323.72769  1323.94953 52807.19422-51272.98683     0.01386     0.04024
  E(xc)   -1196.46418 -1196.46279 -1199.70605    -0.76183    -0.00101    -0.00018
  Local    -550.70039  -550.89783************104185.95253    -0.10279    -0.09496
  n-local  -468.41831  -468.45617  -376.09343    -3.08356     0.01226    -0.00504
  augment   227.80459   227.81322   206.48842     0.57274    -0.00098     0.00070
  Kinetic  4803.83445  4803.96664  4505.20218    11.67629    -0.01114     0.01235
  Fock        0.00000     0.00000     0.00000     0.00000     0.00000     0.00000
  vdW        -7.62283    -7.62283    -8.31142     0.78093    -0.00001    -0.00000
  Total       6.31253     6.35136   -15.20362    -6.13245     0.01047     0.00393
  in kB      12.48693    12.56374   -30.07455   -12.13071     0.02070     0.00778

 VOLUME and BASIS-vectors are now :
  energy-cutoff  :      500.00
  volume of cell :      809.95
      direct lattice vectors                 reciprocal lattice vectors
     0.000000000  0.000000000  5.844679380     0.000000000  0.000000000  0.171095784
     4.468476600 -4.468476600  0.000000000     0.111894958 -0.111894958  0.000000000
    15.506300460 15.506300460  0.000000000     0.032244958  0.032244958  0.000000000

  length of vectors
     5.844679380  6.319380211 21.929220413     0.171095784  0.158243367  0.045601256

 FORCES acting on ions
    electron-ion (+dipol)            ewald-force                    non-local-force                 convergence-correction
   0.995E+03 0.995E+03 -.349E-04   -.101E+04 -.101E+04 0.390E-07   0.206E+02 0.206E+02 0.102E-03   0.147E-03 0.145E-03 0.103E-06
   0.995E+03 0.995E+03 -.350E-04   -.101E+04 -.101E+04 0.666E-07   0.206E+02 0.206E+02 0.102E-03   0.147E-03 0.145E-03 0.896E-07
   0.858E+03 0.829E+03 -.577E-04   -.851E+03 -.835E+03 -.825E-07   -.888E+01 0.622E+01 -.144E-02   -.637E-04 0.964E-04 0.111E-07
   0.858E+03 0.829E+03 -.577E-04   -.851E+03 -.835E+03 -.174E-06   -.888E+01 0.622E+01 -.144E-02   -.637E-04 0.964E-04 0.382E-07
   0.829E+03 0.858E+03 -.265E-04   -.835E+03 -.851E+03 -.194E-06   0.622E+01 -.888E+01 -.941E-03   0.100E-03 -.564E-04 0.601E-07
   0.829E+03 0.858E+03 -.265E-04   -.835E+03 -.851E+03 -.236E-06   0.622E+01 -.888E+01 -.940E-03   0.100E-03 -.564E-04 0.371E-07
   0.595E+03 0.595E+03 -.281E-04   -.592E+03 -.592E+03 0.116E-04   -.130E+01 -.131E+01 -.388E-02   -.503E-03 -.528E-03 -.275E-07
   0.595E+03 0.595E+03 -.288E-04   -.592E+03 -.592E+03 0.122E-04   -.130E+01 -.131E+01 -.388E-02   -.503E-03 -.528E-03 -.829E-08
   0.517E+03 0.517E+03 -.131E-03   -.521E+03 -.521E+03 -.882E-05   0.282E+01 0.282E+01 -.464E-03   -.591E-04 -.254E-04 0.148E-05
   0.517E+03 0.517E+03 -.131E-03   -.521E+03 -.521E+03 -.880E-05   0.282E+01 0.282E+01 -.464E-03   -.590E-04 -.254E-04 0.146E-05
   0.297E+03 0.256E+03 0.266E-03   -.301E+03 -.253E+03 -.223E-03   0.404E+01 -.354E+01 -.222E-03   -.205E-02 0.235E-03 -.259E-05
   0.297E+03 0.256E+03 0.272E-03   -.301E+03 -.253E+03 -.229E-03   0.404E+01 -.354E+01 -.222E-03   -.205E-02 0.235E-03 -.270E-05
   0.256E+03 0.297E+03 0.404E-03   -.253E+03 -.301E+03 -.370E-03   -.354E+01 0.404E+01 -.105E-02   0.276E-03 -.203E-02 -.144E-05
   0.256E+03 0.297E+03 0.404E-03   -.253E+03 -.301E+03 -.370E-03   -.354E+01 0.404E+01 -.105E-02   0.276E-03 -.203E-02 -.161E-05
   0.365E+02 0.365E+02 0.274E-02   -.309E+02 -.309E+02 -.134E-02   -.541E+01 -.539E+01 -.345E-02   0.190E-02 0.200E-02 -.492E-05
   0.365E+02 0.365E+02 0.274E-02   -.309E+02 -.309E+02 -.135E-02   -.541E+01 -.539E+01 -.345E-02   0.190E-02 0.200E-02 -.479E-05
   -.498E+02 -.498E+02 0.569E-02   0.451E+02 0.451E+02 -.122E-01   0.476E+01 0.479E+01 0.502E-02   -.217E-02 -.293E-02 0.661E-04
   -.498E+02 -.498E+02 0.568E-02   0.451E+02 0.451E+02 -.122E-01   0.476E+01 0.479E+01 0.503E-02   -.217E-02 -.293E-02 0.663E-04
   -.299E+03 -.277E+03 -.202E-02   0.301E+03 0.274E+03 0.446E-02   -.208E+01 0.298E+01 -.446E-02   -.834E-02 -.418E-02 0.246E-03
   -.299E+03 -.277E+03 -.208E-02   0.301E+03 0.274E+03 0.452E-02   -.208E+01 0.298E+01 -.446E-02   -.834E-02 -.418E-02 0.248E-03
   -.277E+03 -.299E+03 0.568E-02   0.274E+03 0.301E+03 -.703E-02   0.301E+01 -.209E+01 -.685E-03   -.418E-02 -.837E-02 0.398E-03
   -.277E+03 -.299E+03 0.561E-02   0.274E+03 0.301E+03 -.698E-02   0.301E+01 -.209E+01 -.675E-03   -.418E-02 -.837E-02 0.399E-03
   -.517E+03 -.517E+03 -.120E-01   0.516E+03 0.516E+03 0.223E-01   0.102E+01 0.104E+01 -.107E-01   0.450E-02 0.322E-02 -.207E-03
   -.517E+03 -.517E+03 -.120E-01   0.516E+03 0.516E+03 0.223E-01   0.102E+01 0.104E+01 -.107E-01   0.449E-02 0.321E-02 -.207E-03
   -.598E+03 -.598E+03 0.862E-03   0.599E+03 0.599E+03 -.480E-02   -.168E+01 -.165E+01 0.580E-02   0.996E-02 0.105E-01 -.984E-03
   -.598E+03 -.598E+03 0.870E-03   0.599E+03 0.599E+03 -.481E-02   -.168E+01 -.165E+01 0.580E-02   0.996E-02 0.105E-01 -.984E-03
   -.851E+03 -.839E+03 -.151E-01   0.849E+03 0.851E+03 0.284E-01   0.209E+01 -.125E+02 -.141E-01   -.110E-01 -.960E-02 0.380E-03
   -.851E+03 -.839E+03 -.150E-01   0.849E+03 0.851E+03 0.283E-01   0.209E+01 -.125E+02 -.141E-01   -.110E-01 -.960E-02 0.381E-03
   -.839E+03 -.851E+03 -.113E-02   0.851E+03 0.849E+03 -.263E-03   -.124E+02 0.209E+01 -.612E-03   -.105E-01 -.104E-01 0.488E-03
   -.839E+03 -.851E+03 -.109E-02   0.851E+03 0.849E+03 -.311E-03   -.124E+02 0.209E+01 -.608E-03   -.105E-01 -.104E-01 0.490E-03
   -.977E+03 -.977E+03 0.639E-02   0.999E+03 0.999E+03 -.106E-01   -.221E+02 -.221E+02 0.300E-02   -.180E-01 -.178E-01 -.745E-04
   -.977E+03 -.977E+03 0.639E-02   0.999E+03 0.999E+03 -.106E-01   -.221E+02 -.221E+02 0.299E-02   -.180E-01 -.178E-01 -.741E-04
   0.596E+03 0.596E+03 0.492E-04   -.592E+03 -.592E+03 -.192E-07   -.198E+01 -.198E+01 -.693E-03   0.779E-05 0.116E-04 -.365E-07
   0.596E+03 0.596E+03 0.492E-04   -.592E+03 -.592E+03 0.814E-08   -.198E+01 -.198E+01 -.693E-03   0.778E-05 0.116E-04 -.371E-07
   0.539E+03 0.539E+03 0.995E-04   -.543E+03 -.543E+03 -.417E-06   0.124E+01 0.125E+01 -.466E-03   -.161E-03 -.165E-03 -.970E-08
   0.539E+03 0.539E+03 0.996E-04   -.543E+03 -.543E+03 -.508E-06   0.124E+01 0.125E+01 -.466E-03   -.161E-03 -.165E-03 -.101E-07
   0.185E+03 0.185E+03 0.317E-03   -.184E+03 -.184E+03 0.107E-03   -.182E+00 -.179E+00 0.895E-04   0.517E-03 0.553E-03 -.665E-06
   0.185E+03 0.185E+03 0.315E-03   -.184E+03 -.184E+03 0.108E-03   -.182E+00 -.179E+00 0.898E-04   0.517E-03 0.553E-03 -.661E-06
   0.185E+03 0.185E+03 -.831E-03   -.185E+03 -.185E+03 0.843E-03   0.259E+00 0.260E+00 -.174E-03   -.595E-03 -.650E-03 0.149E-05
   0.185E+03 0.185E+03 -.837E-03   -.185E+03 -.185E+03 0.848E-03   0.259E+00 0.260E+00 -.174E-03   -.595E-03 -.650E-03 0.149E-05
   -.196E+03 -.196E+03 -.546E-03   0.197E+03 0.197E+03 0.656E-03   -.116E+01 -.116E+01 -.104E-02   0.104E-02 0.116E-02 -.514E-04
   -.196E+03 -.196E+03 -.544E-03   0.197E+03 0.197E+03 0.653E-03   -.116E+01 -.116E+01 -.104E-02   0.104E-02 0.116E-02 -.512E-04
   -.187E+03 -.188E+03 0.107E-01   0.187E+03 0.187E+03 -.975E-02   0.713E+00 0.715E+00 -.325E-02   0.415E-02 0.400E-02 0.131E-04
   -.187E+03 -.188E+03 0.107E-01   0.187E+03 0.187E+03 -.972E-02   0.713E+00 0.715E+00 -.325E-02   0.415E-02 0.400E-02 0.124E-04
   -.531E+03 -.531E+03 -.145E-01   0.534E+03 0.534E+03 0.123E-01   -.302E+01 -.302E+01 0.172E-02   -.296E-02 -.297E-02 0.477E-04
   -.531E+03 -.531E+03 -.143E-01   0.534E+03 0.534E+03 0.121E-01   -.302E+01 -.302E+01 0.170E-02   -.296E-02 -.297E-02 0.488E-04
   -.552E+03 -.552E+03 0.250E-01   0.550E+03 0.550E+03 -.224E-01   0.201E+01 0.200E+01 -.519E-02   -.962E-03 -.110E-02 -.458E-04
   -.552E+03 -.552E+03 0.250E-01   0.550E+03 0.550E+03 -.224E-01   0.201E+01 0.200E+01 -.519E-02   -.962E-03 -.110E-02 -.459E-04
   0.301E+02 0.300E+02 0.240E-01   0.148E-11 0.568E-12 0.115E-13   -.300E+02 -.300E+02 -.742E-01   -.780E-01 -.778E-01 0.545E-03

 POSITION                                       TOTAL-FORCE (eV/Angst)
      2.54568     -2.54568      0.76455         0.815421      0.814053      0.001103
      2.54568     -2.54568      3.68689         0.815421      0.814054      0.001103
      2.04396     -0.31144      2.22572        -1.851215      0.423838     -0.000465
      2.04396     -0.31144      5.14806        -1.851215      0.423838     -0.000465
      4.77992     -3.04740      2.22572         0.425216     -1.848741      0.000068
      4.77992     -3.04740      5.14806         0.425216     -1.848741      0.000068
      4.27820     -0.81316      0.76455         1.089177      1.086847     -0.002858
      4.27820     -0.81316      3.68689         1.089177      1.086847     -0.002858
      2.54568      1.92279      0.76455        -0.379728     -0.382901      0.000433
      2.54568      1.92279      3.68689        -0.379729     -0.382902      0.000433
      4.77992      1.42107      2.22572        -0.010810      0.131172      0.000854
      4.77992      1.42107      5.14806        -0.010810      0.131172      0.000854
      6.51244     -0.31144      2.22572         0.131162     -0.009615      0.000017
      6.51244     -0.31144      5.14806         0.131162     -0.009615      0.000017
      4.27820      3.65531      0.76455         0.204964      0.202238     -0.001029
      4.27820      3.65531      3.68689         0.204964      0.202237     -0.001030
      7.00267      1.91169      0.76450         0.027787      0.029047     -0.000375
      7.00267      1.91169      3.68684         0.027784      0.029046     -0.000373
      6.52193      4.14593      2.22548        -0.008218      0.000904     -0.000735
      6.52193      4.14593      5.14782        -0.008219      0.000905     -0.000732
      9.23618      1.43155      2.22559         0.002532     -0.008092     -0.000609
      9.23618      1.43155      5.14793         0.002532     -0.008092     -0.000604
      8.72523      3.63390      0.76413         0.018409      0.021803      0.000440
      8.72523      3.63390      3.68647         0.018409      0.021803      0.000439
      7.03806      6.41430      0.76411         0.020229      0.018523      0.001912
      7.03806      6.41430      3.68645         0.020236      0.018532      0.001913
      9.40178      5.96922      2.22510         0.010531     -0.004670      0.000627
      9.40178      5.96922      5.14744         0.010530     -0.004670      0.000621
     11.06146      4.30852      2.22543        -0.003400      0.009625     -0.000483
     11.06146      4.30852      5.14777        -0.003399      0.009626     -0.000484
      8.80105      8.17621      0.76413        -0.004421     -0.004060     -0.000286
      8.80105      8.17621      3.68647        -0.004423     -0.004065     -0.000286
      1.17770      0.55481      0.76455         1.966096      1.968339      0.000392
      1.17770      0.55481      3.68689         1.966096      1.968339      0.000392
      3.41194     -1.67942      2.22572        -2.262330     -2.258859      0.000669
      3.41194     -1.67942      5.14806        -2.262330     -2.258859      0.000669
      3.41194      2.78905      2.22572         0.428040      0.431622      0.001549
      3.41194      2.78905      5.14806         0.428040      0.431622      0.001548
      5.64618      0.55481      0.76455        -0.571479     -0.569236      0.000875
      5.64618      0.55481      3.68689        -0.571479     -0.569235      0.000875
      5.69058      5.06878      0.76438        -0.015711     -0.016765      0.000055
      5.69058      5.06878      3.68672        -0.015714     -0.016766      0.000053
      7.83895      2.74882      2.22555        -0.013387     -0.013676     -0.001223
      7.83895      2.74882      5.14789        -0.013385     -0.013676     -0.001222
      8.01777      7.39389      2.22522        -0.027187     -0.029216      0.000612
      8.01777      7.39389      5.14756        -0.027189     -0.029213      0.000602
     10.02456      4.93218      0.76423         0.008324      0.007817     -0.001539
     10.02456      4.93218      3.68656         0.008323      0.007818     -0.001539
    total drift:                               -0.005695     -0.016162     -0.049701
  FORCES: max atom, RMS     0.040199    0.016102
  Number: max atom                17
  FORCE total and by dimension    0.111561    0.029216

  FREE ENERGIE OF THE ION-ELECTRON SYSTEM (eV)
  free  energy   TOTEN  =      -309.22360849 eV

  energy  without entropy=     -309.22360849  energy(sigma->0) =     -309.22360849

 d Force = 0.4204229E-04[-0.222E-04, 0.106E-03]  d Energy = 0.4664903E-04-0.461E-05
 d Force = 0.8208817E+01[ 0.821E+01, 0.821E+01]  d Ewald  = 0.8208817E+01 0.269E-08

 reached required accuracy - stopping structural energy minimisation