vasp.5.4.1 08Jul2015 (build Apr 24 2014 00:09:29) complex standard with constrain (TS)
 executed on IBM of Center for Computational Chemistry date 2017.12.16  16:21:31

 INCAR:
 POTCAR:    PAW_PBE O 08Apr2002
 POTCAR:    PAW_PBE Rh 04Feb2005
 POTCAR:    PAW_PBE O 08Apr2002
   VRHFIN =O: s2p4

   TITEL  = PAW_PBE O 08Apr2002
   POMASS =   16.000; ZVAL   =    6.000    mass and valenz
   ENMAX  =  400.000; ENMIN  =  300.000 eV

 POTCAR:    PAW_PBE Rh 04Feb2005
   VRHFIN =Rh: s1 d8

   TITEL  = PAW_PBE Rh 04Feb2005
   POMASS =  102.906; ZVAL   =    9.000    mass and valenz
   ENMAX  =  228.996; ENMIN  =  171.747 eV

 Optimization of the real space projectors (new method)

 maximal supplied QI-value         = 24.76
 optimisation between [QCUT,QGAM] = [ 11.39, 22.77] = [ 36.31,145.25] Ry
 Optimized for a Real-space Cutoff    1.10 Angstroem

   l    n(q)    QCUT    max X(q) W(low)/X(q) W(high)/X(q)  e(spline)
   0      7    11.387    20.381    0.22E-03    0.48E-03    0.18E-06
   0      7    11.387    15.268    0.22E-03    0.52E-03    0.19E-06
   1      7    11.387     5.964    0.22E-03    0.73E-03    0.24E-06
   1      7    11.387     5.382    0.19E-03    0.60E-03    0.21E-06
 Optimization of the real space projectors (new method)

 maximal supplied QI-value         = 13.98
 optimisation between [QCUT,QGAM] = [ 11.33, 22.79] = [ 35.93,145.49] Ry
 Optimized for a Real-space Cutoff    1.52 Angstroem

   l    n(q)    QCUT    max X(q) W(low)/X(q) W(high)/X(q)  e(spline)
   2      9    11.327    59.645    0.18E-03    0.38E-04    0.24E-06
   2      9    11.327    58.460    0.18E-03    0.38E-04    0.25E-06
   0     10    11.327    97.683    0.47E-04    0.63E-04    0.45E-06
   0     10    11.327    53.223    0.42E-04    0.58E-04    0.42E-06
   1     10    11.327    13.596    0.66E-04    0.37E-03    0.31E-06
   1     10    11.327     7.885    0.49E-04    0.28E-03    0.24E-06
  PAW_PBE O 08Apr2002                   :
  PAW_PBE Rh 04Feb2005                  :

 POSCAR: AutoCreatByScript
  positions in direct lattice
 exchange correlation table for  LEXCH =        8
   RHO(1)=    0.500       N(1)  =     2000
   RHO(2)=  100.500       N(2)  =     4000

 ion  position               nearest neighbor table
   1  0.131  0.570  0.000-  35 1.98  36 1.98
   2  0.631  0.570  0.000-  35 1.98  36 1.98
   3  0.381  0.263  0.056-  35 1.95  34 1.98  33 1.98
   4  0.881  0.263  0.056-  36 1.95  34 1.98  33 1.98
   5  0.381  0.876  0.056-  35 1.95  34 1.98  33 1.98
   6  0.881  0.876  0.056-  36 1.95  34 1.98  33 1.98
   7  0.131  0.570  0.112-  39 1.95  36 1.98  35 1.98
   8  0.631  0.570  0.112-  40 1.95  36 1.98  35 1.98
   9  0.131  0.070  0.145-  33 1.95  37 1.98  38 1.98
  10  0.631  0.070  0.145-  34 1.95  37 1.98  38 1.98
  11  0.381  0.376  0.200-  37 1.95  39 1.98  40 1.98
  12  0.881  0.376  0.200-  38 1.95  39 1.98  40 1.98
  13  0.381  0.763  0.200-  37 1.95  39 1.98  40 1.98
  14  0.881  0.763  0.200-  38 1.95  39 1.98  40 1.98
  15  0.131  0.070  0.256-  41 1.95  38 1.98  37 1.98
  16  0.631  0.070  0.256-  42 1.95  38 1.98  37 1.98
  17  0.131  0.570  0.289-  39 1.95  43 1.98  44 1.98
  18  0.631  0.570  0.289-  40 1.95  43 1.98  44 1.98
  19  0.381  0.263  0.345-  43 1.95  42 1.98  41 1.98
  20  0.881  0.263  0.345-  44 1.95  42 1.98  41 1.98
  21  0.381  0.876  0.345-  43 1.95  42 1.98  41 1.98
  22  0.881  0.876  0.345-  44 1.95  42 1.98  41 1.98
  23  0.131  0.570  0.401-  47 1.95  44 1.98  43 1.98
  24  0.631  0.570  0.401-  48 1.95  44 1.98  43 1.98
  25  0.131  0.070  0.434-  41 1.95  45 1.98  46 1.98
  26  0.631  0.070  0.434-  42 1.95  45 1.98  46 1.98
  27  0.381  0.376  0.490-  45 1.95  47 1.98  48 1.98
  28  0.881  0.376  0.490-  46 1.95  47 1.98  48 1.98
  29  0.381  0.763  0.490-  45 1.95  47 1.98  48 1.98
  30  0.881  0.763  0.490-  46 1.95  47 1.98  48 1.98
  31  0.131  0.070  0.545-  45 1.98  46 1.98
  32  0.631  0.070  0.545-  45 1.98  46 1.98
  33  0.131  0.070  0.056-   9 1.95   4 1.98   3 1.98   6 1.98   5 1.98  34 3.10  34 3.10
  34  0.631  0.070  0.056-  10 1.95   4 1.98   3 1.98   6 1.98   5 1.98  33 3.10  33 3.10
  35  0.381  0.570  0.056-   5 1.95   3 1.95   1 1.98   2 1.98   7 1.98   8 1.98  36 3.10  36 3.10

  36  0.881  0.570  0.056-   6 1.95   4 1.95   1 1.98   2 1.98   7 1.98   8 1.98  35 3.10  35 3.10

[...]

  47  0.131  0.570  0.490-  23 1.95  29 1.98  30 1.98  27 1.98  28 1.98  48 3.10  48 3.10
  48  0.631  0.570  0.490-  24 1.95  29 1.98  30 1.98  27 1.98  28 1.98  47 3.10  47 3.10

IMPORTANT INFORMATION: All symmetrisations will be switched off!
NOSYMM: (Re-)initialisation of all symmetry stuff for point group C_1.

 KPOINTS: mesh auto

Automatic generation of k-mesh.
Space group operators:
 irot       det(A)        alpha          n_x          n_y          n_z        tau_x        tau_y        tau_z
    1     1.000000     0.000000     1.000000     0.000000     0.000000     0.000000     0.000000     0.000000

 Subroutine IBZKPT returns following result:

 Found     10 irreducible k-points:

 Following reciprocal coordinates:
            Coordinates               Weight
  0.000000  0.000000  0.000000      1.000000
  0.250000  0.000000  0.000000      2.000000
  0.500000  0.000000  0.000000      1.000000
  0.000000  0.250000  0.000000      2.000000
  0.250000  0.250000  0.000000      2.000000
  0.500000  0.250000  0.000000      2.000000
 -0.250000  0.250000  0.000000      2.000000
  0.000000  0.500000  0.000000      1.000000
  0.250000  0.500000  0.000000      2.000000
  0.500000  0.500000  0.000000      1.000000

 Following cartesian coordinates:
            Coordinates               Weight
  0.000000  0.000000  0.000000      1.000000
  0.000000  0.000000  0.040325      2.000000
  0.000000  0.000000  0.080649      1.000000
  0.027800 -0.027800  0.000000      2.000000
  0.027800 -0.027800  0.040325      2.000000
  0.027800 -0.027800  0.080649      2.000000
  0.027800 -0.027800 -0.040325      2.000000
  0.055600 -0.055600  0.000000      1.000000
  0.055600 -0.055600  0.040325      2.000000
  0.055600 -0.055600  0.080649      1.000000

 I would recommend the setting:
   dimension x,y,z NGX =    45 NGY =   46 NGZ =  160
 SYSTEM =  RhO2_suf110_2x1x4_2fix
 POSCAR =  AutoCreatByScript

 Startparameter for this run:
   NWRITE =      2    write-flag & timer
   PREC   = accura    normal or accurate (medium, high low for compatibility)
   ISTART =      0    job   : 0-new  1-cont  2-samecut
   ICHARG =      2    charge: 1-file 2-atom 10-const
   ISPIN  =      2    spin polarized calculation?
   LNONCOLLINEAR =      F non collinear calculations
   LSORBIT =      F    spin-orbit coupling
   INIWAV =      1    electr: 0-lowe 1-rand  2-diag
   LASPH  =      F    aspherical Exc in radial PAW
   METAGGA=      F    non-selfconsistent MetaGGA calc.

 Electronic Relaxation 1
   ENCUT  =  500.0 eV  36.75 Ry    6.06 a.u.  11.30 11.59 40.10*2*pi/ulx,y,z
   ENINI  =  500.0     initial cutoff
   ENAUG  =  605.4 eV  augmentation charge cutoff
   NELM   =    300;   NELMIN=  3; NELMDL= -5     # of ELM steps
   EDIFF  = 0.1E-03   stopping-criterion for ELM
   LREAL  =      T    real-space projection
   NLSPLINE    = F    spline interpolate recip. space projectors
   LCOMPAT=      F    compatible to vasp.4.4
   GGA_COMPAT  = T    GGA compatible to vasp.4.4-vasp.4.6
   LMAXPAW     = -100 max onsite density
   LMAXMIX     =    2 max onsite mixed and CHGCAR
   VOSKOWN=      0    Vosko Wilk Nusair interpolation
   ROPT   =   -0.00025  -0.00025
 Ionic relaxation
   EDIFFG = -.5E-01   stopping-criterion for IOM
   NSW    =   1000    number of steps for IOM
   NBLOCK =      1;   KBLOCK =   1000    inner block; outer block
   IBRION =      2    ionic relax: 0-MD 1-quasi-New 2-CG
   NFREE  =      1    steps in history (QN), initial steepest desc. (CG)
   ISIF   =      2    stress and relaxation
   IWAVPR =     11    prediction:  0-non 1-charg 2-wave 3-comb
   ISYM   =      0    0-nonsym 1-usesym 2-fastsym
   LCORR  =      T    Harris-Foulkes like correction to forces

   POTIM  = 0.1000    time-step for ionic-motion
   TEIN   =    0.0    initial temperature
   TEBEG  =    0.0;   TEEND  =   0.0 temperature during run
   SMASS  =  -3.00    Nose mass-parameter (am)
   estimated Nose-frequenzy (Omega)   =  0.10E-29 period in steps =****** mass=  -0.878E-27a.u.
   SCALEE = 1.0000    scale energy and forces
   NPACO  =    256;   APACO  = 16.0  distance and # of slots for P.C.
   PSTRESS=    0.0 pullay stress

  Mass of Ions in am
   POMASS =  16.00102.91
  Ionic Valenz
   ZVAL   =   6.00  9.00
  Atomic Wigner-Seitz radii
  virtual crystal weights
   VCA    =   1.00  1.00
   NELECT =     336.0000    total number of electrons
   NUPDOWN=      -1.0000    fix difference up-down

 DOS related values:
   EMIN   =  10.00;   EMAX   =-10.00  energy-range for DOS
   EFERMI =   0.00
   ISMEAR =     0;   SIGMA  =   0.05  broadening in eV -4-tet -1-fermi 0-gaus

 Electronic relaxation 2 (details)
   IALGO  =     68    algorithm
   LDIAG  =      T    sub-space diagonalisation (order eigenvalues)
   LSUBROT=      F    optimize rotation matrix (better conditioning)
   TURBO    =      0    0=normal 1=particle mesh
   IRESTART =      0    0=no restart 2=restart with 2 vectors
   NREBOOT  =      0    no. of reboots
   NMIN     =      0    reboot dimension
   EREF     =   0.00    reference energy to select bands
   IMIX   =      4    mixing-type and parameters
     AMIX     =   0.40;   BMIX     =  1.00
     AMIX_MAG =   1.60;   BMIX_MAG =  1.00
     AMIN     =   0.10
     WC   =   100.;   INIMIX=   1;  MIXPRE=   1;  MAXMIX= -45

 Intra band minimization:
   WEIMIN = 0.0010     energy-eigenvalue tresh-hold
   EBREAK =  0.11E-06  absolut break condition
   DEPER  =   0.30     relativ break condition

   TIME   =   0.40     timestep for ELM

  volume/ion in A,a.u.               =      18.07       121.91
  Fermi-wavevector in a.u.,A,eV,Ry     =   1.193510  2.255407 19.381036  1.424466
  Thomas-Fermi vector in A             =   2.329523

 Write flags
   LWAVE  =      F    write WAVECAR
   LCHARG =      F    write CHGCAR
   LVTOT  =      F    write LOCPOT, total local potential
   LVHAR  =      F    write LOCPOT, Hartree potential only
   LELF   =      F    write electronic localiz. function (ELF)
   LORBIT =      0    0 simple, 1 ext, 2 COOP (PROOUT)

 Dipole corrections
   LMONO  =      F    monopole corrections only (constant potential shift)
   LDIPOL =      F    correct potential (dipole corrections)
   IDIPOL =      0    1-x, 2-y, 3-z, 4-all directions
   EPSILON=  1.0000000 bulk dielectric constant

 Exchange correlation treatment:
   GGA     =    --    GGA type
   VOSKOWN=      0    Vosko Wilk Nusair interpolation
   LHFCALC =     F    Hartree Fock is set to
   LHFONE  =     F    Hartree Fock one center treatment
   AEXX    =    0.0000 exact exchange contribution

 Linear response parameters
   LEPSILON=     F    determine dielectric tensor
   LRPA    =     F    only Hartree local field effects (RPA)
   LNABLA  =     F    use nabla operator in PAW spheres
   LVEL    =     F    velocity operator in full k-point grid
   LINTERFAST=   F  fast interpolation
   KINTER  =     0    interpolate to denser k-point grid
[...]
      31 -73.9931      32 -73.9934      33 -73.3838      34 -73.3838      35 -73.5769
      36 -73.5769      37 -73.7288      38 -73.7288      39 -73.7259      40 -73.7259
      41 -73.7082      42 -73.7082      43 -73.7014      44 -73.7013      45 -73.4820
      46 -73.4820      47 -73.3340      48 -73.3341

 E-fermi :   0.9917     XC(G=0):  -7.4344     alpha+bet : -7.4872

[...]

 spin component 2

[...]

 k-point    10 :       0.5000    0.5000    0.0000
  band No.  band energies     occupation
      1     -18.3736      1.00000
      2     -18.3736      1.00000
      3     -18.2675      1.00000
      4     -18.2675      1.00000
      5     -18.0576      1.00000
      6     -18.0576      1.00000
      7     -18.0073      1.00000
      8     -18.0073      1.00000
      9     -17.8207      1.00000
     10     -17.8207      1.00000
     11     -17.8203      1.00000
     12     -17.8203      1.00000
     13     -17.7740      1.00000
     14     -17.7740      1.00000
     15     -17.6869      1.00000
     16     -17.6869      1.00000
     17     -17.6859      1.00000
     18     -17.6859      1.00000
     19     -17.6374      1.00000
     20     -17.6374      1.00000
     21     -17.6206      1.00000
     22     -17.6206      1.00000
     23     -17.5479      1.00000
     24     -17.5478      1.00000
     25     -17.4263      1.00000
     26     -17.4263      1.00000
     27     -17.3265      1.00000
     28     -17.3265      1.00000
     29     -16.2697      1.00000
     30     -16.2695      1.00000
     31     -16.1544      1.00000
     32     -16.1544      1.00000
     33      -6.6352      1.00000
     34      -6.6352      1.00000
     35      -6.4899      1.00000
     36      -6.4898      1.00000
     37      -6.1719      1.00000
     38      -6.1718      1.00000
     39      -6.1197      1.00000
     40      -6.1197      1.00000
     41      -6.1141      1.00000
     42      -6.1141      1.00000
     43      -6.0885      1.00000
     44      -6.0885      1.00000
     45      -6.0213      1.00000
     46      -6.0213      1.00000
     47      -5.8446      1.00000
     48      -5.8445      1.00000
     49      -5.7550      1.00000
     50      -5.7550      1.00000
     51      -5.6900      1.00000
     52      -5.6899      1.00000
     53      -5.6147      1.00000
     54      -5.6146      1.00000
     55      -5.5910      1.00000
     56      -5.5910      1.00000
     57      -5.4584      1.00000
     58      -5.4584      1.00000
     59      -5.3971      1.00000
     60      -5.3971      1.00000
[...]
    214       8.9003      0.00000
    215       9.0334      0.00000
    216       9.0335      0.00000
    217       9.8461      0.00000
    218       9.8461      0.00000
    219       9.8644      0.00000
    220       9.8645      0.00000
    221      10.1945      0.00000
    222      10.1945      0.00000
    223      10.3103      0.00000
    224      10.3103      0.00000
    225      10.4897      0.00000
    226      10.4897      0.00000
    227      10.5708      0.00000
    228      10.5708      0.00000

[...]

 soft charge-density along one line, spin component           2
         0         1         2         3         4         5         6         7         8         9
 total charge-density along one line

------------------------ aborting loop because EDIFF is reached ----------------------------------------

         DFTD3 V3.0 Rev 1
 Edisp (eV)   -9.14461

 E6    (eV) :    -5.6396
 E8    (eV) :    -3.5050
 % E8        : 38.33

  FORCE on cell =-STRESS in cart. coord.  units (eV):
  Direction    XX          YY          ZZ          XY          YZ          ZX
  Alpha Z   669.22617   669.22617   669.22617
  Ewald   -8025.82702 -8025.27781 82260.36684-87416.20237     0.07402     0.04755
  Hartree  1240.26469  1240.40396 87640.50438-85046.43815     0.01261    -0.00247
  E(xc)   -1638.11410 -1638.10731 -1634.32470    -1.40715     0.00077     0.00090
  Local    1231.72595  1231.26023************172450.33936    -0.06587    -0.02034
  n-local  -629.05336  -628.96855  -569.90675   -13.27777     0.01663    -0.01597
  augment  1149.17843  1149.10265  1133.05611     5.49736    -0.00445    -0.00531
  Kinetic  6009.77720  6009.55760  5824.13674    20.50520    -0.01948    -0.02109
  Fock        0.00000     0.00000     0.00000     0.00000     0.00000     0.00000
  vdW        -8.56186    -8.56176    -9.26493     0.90167    -0.00000     0.00000
  Total      -1.38390    -1.36481    -6.74232    -0.08186     0.01423    -0.01673
  in kB      -2.55699    -2.52173   -12.45760    -0.15125     0.02630    -0.03090

 VOLUME and BASIS-vectors are now :
  energy-cutoff  :      500.00
  volume of cell :      867.13
      direct lattice vectors                 reciprocal lattice vectors
     0.000000000  0.000000000  6.199679030     0.000000000  0.000000000  0.161298673
     4.496384460 -4.496384460  0.000000000     0.111200455 -0.111200455  0.000000000
    15.553317250 15.553317250  0.000000000     0.032147483  0.032147483  0.000000000

  length of vectors
     6.199679030  6.358847885 21.995712195     0.161298673  0.157261192  0.045463406

 FORCES acting on ions
    electron-ion (+dipol)            ewald-force                    non-local-force                 convergence-correction
   0.127E+04 0.127E+04 -.435E-03   -.128E+04 -.128E+04 0.195E-05   0.180E+02 0.180E+02 0.245E-02   -.581E-02 -.582E-02 -.306E-05
   0.127E+04 0.127E+04 -.435E-03   -.128E+04 -.128E+04 0.161E-05   0.180E+02 0.180E+02 0.245E-02   -.586E-02 -.587E-02 0.159E-05
   0.104E+04 0.103E+04 0.347E-03   -.104E+04 -.103E+04 -.286E-05   -.226E+01 0.133E+01 0.303E-02   0.642E-01 0.772E-01 -.215E-03
   0.104E+04 0.103E+04 -.529E-04   -.104E+04 -.103E+04 -.197E-04   -.226E+01 0.133E+01 0.301E-02   0.642E-01 0.771E-01 0.218E-03
   0.103E+04 0.104E+04 0.864E-04   -.103E+04 -.104E+04 0.741E-06   0.133E+01 -.226E+01 0.887E-03   0.772E-01 0.642E-01 -.215E-03
   0.103E+04 0.104E+04 -.305E-03   -.103E+04 -.104E+04 -.227E-04   0.133E+01 -.226E+01 0.874E-03   0.771E-01 0.642E-01 0.217E-03
   0.732E+03 0.732E+03 -.829E-03   -.732E+03 -.732E+03 0.333E-03   -.227E+00 -.229E+00 0.231E-02   0.148E+00 0.148E+00 0.540E-04
   0.732E+03 0.732E+03 -.728E-03   -.732E+03 -.732E+03 0.329E-03   -.227E+00 -.229E+00 0.234E-02   0.148E+00 0.148E+00 -.476E-04
   0.640E+03 0.640E+03 0.886E-03   -.639E+03 -.639E+03 0.138E-03   -.107E+01 -.108E+01 -.129E-02   0.144E+00 0.144E+00 0.330E-03
   0.640E+03 0.640E+03 0.143E-02   -.639E+03 -.639E+03 0.131E-03   -.107E+01 -.108E+01 -.124E-02   0.144E+00 0.144E+00 -.265E-03
   0.368E+03 0.316E+03 0.989E-02   -.370E+03 -.314E+03 -.992E-02   0.141E+01 -.149E+01 0.997E-03   0.142E+00 0.120E+00 -.324E-03
   0.368E+03 0.316E+03 0.941E-02   -.370E+03 -.314E+03 -.101E-01   0.141E+01 -.149E+01 0.100E-02   0.142E+00 0.120E+00 0.311E-03
   0.316E+03 0.368E+03 0.945E-02   -.314E+03 -.370E+03 -.923E-02   -.149E+01 0.141E+01 0.295E-02   0.120E+00 0.142E+00 -.323E-03
   0.316E+03 0.368E+03 0.960E-02   -.314E+03 -.370E+03 -.100E-01   -.149E+01 0.141E+01 0.295E-02   0.120E+00 0.142E+00 0.311E-03
   0.491E+02 0.491E+02 -.159E-02   -.469E+02 -.469E+02 0.428E-02   -.206E+01 -.205E+01 -.403E-02   0.133E+00 0.134E+00 -.308E-04
   0.491E+02 0.491E+02 -.180E-02   -.469E+02 -.469E+02 0.449E-02   -.206E+01 -.205E+01 -.414E-02   0.133E+00 0.134E+00 0.929E-05
   -.560E+02 -.560E+02 0.572E-02   0.544E+02 0.544E+02 -.915E-02   0.145E+01 0.147E+01 0.107E-01   0.813E-01 0.808E-01 -.170E-02
   -.560E+02 -.560E+02 0.376E-02   0.544E+02 0.544E+02 -.983E-02   0.145E+01 0.147E+01 0.107E-01   0.816E-01 0.811E-01 0.993E-03
   -.373E+03 -.325E+03 -.345E-01   0.374E+03 0.324E+03 0.435E-01   -.147E+01 0.128E+01 -.544E-02   -.103E-01 0.319E-01 0.217E-03
   -.373E+03 -.325E+03 -.377E-01   0.374E+03 0.324E+03 0.466E-01   -.147E+01 0.128E+01 -.581E-02   -.946E-02 0.310E-01 0.674E-03
   -.325E+03 -.373E+03 -.769E-01   0.324E+03 0.374E+03 0.929E-01   0.130E+01 -.152E+01 -.116E-01   0.321E-01 -.100E-01 0.545E-04
   -.325E+03 -.373E+03 -.751E-01   0.324E+03 0.374E+03 0.900E-01   0.130E+01 -.152E+01 -.112E-01   0.312E-01 -.925E-02 0.521E-03
   -.634E+03 -.634E+03 0.183E-01   0.633E+03 0.632E+03 -.253E-01   0.125E+01 0.158E+01 0.162E-01   -.101E-01 -.963E-02 -.189E-02
   -.634E+03 -.634E+03 0.150E-01   0.633E+03 0.632E+03 -.244E-01   0.125E+01 0.158E+01 0.160E-01   -.993E-02 -.941E-02 0.787E-03
   -.732E+03 -.732E+03 -.176E-01   0.733E+03 0.732E+03 0.306E-01   0.247E-01 0.102E+00 -.147E-01   -.146E+00 -.146E+00 0.446E-03
   -.732E+03 -.732E+03 -.169E-01   0.733E+03 0.732E+03 0.304E-01   0.240E-01 0.101E+00 -.146E-01   -.146E+00 -.146E+00 -.324E-03
   -.105E+04 -.105E+04 0.293E-01   0.105E+04 0.106E+04 -.371E-01   -.203E+01 -.568E+01 0.964E-02   0.535E-02 -.182E+00 -.660E-03
   -.105E+04 -.105E+04 0.240E-01   0.105E+04 0.106E+04 -.321E-01   -.203E+01 -.568E+01 0.940E-02   0.571E-02 -.183E+00 0.183E-03
   -.105E+04 -.105E+04 -.496E-02   0.106E+04 0.105E+04 0.472E-02   -.566E+01 -.207E+01 0.747E-02   -.183E+00 0.510E-02 -.147E-02
   -.105E+04 -.105E+04 -.886E-02   0.106E+04 0.105E+04 0.804E-02   -.566E+01 -.207E+01 0.739E-02   -.184E+00 0.544E-02 -.672E-03
   -.126E+04 -.126E+04 0.133E-01   0.128E+04 0.128E+04 -.118E-01   -.183E+02 -.182E+02 0.763E-03   -.485E-01 -.488E-01 0.179E-03
   -.126E+04 -.126E+04 0.131E-01   0.128E+04 0.128E+04 -.998E-02   -.183E+02 -.182E+02 0.578E-03   -.485E-01 -.487E-01 -.125E-02
   0.162E+04 0.162E+04 0.332E-03   -.162E+04 -.162E+04 0.850E-05   -.395E+01 -.395E+01 0.565E-02   0.998E-01 0.998E-01 0.816E-04
   0.162E+04 0.162E+04 0.503E-03   -.162E+04 -.162E+04 0.669E-05   -.395E+01 -.395E+01 0.565E-02   0.997E-01 0.997E-01 -.875E-04
   0.151E+04 0.151E+04 0.976E-03   -.151E+04 -.151E+04 -.209E-04   0.824E+00 0.842E+00 0.408E-02   0.124E+00 0.124E+00 -.391E-03
   0.151E+04 0.151E+04 0.254E-03   -.151E+04 -.151E+04 -.505E-04   0.824E+00 0.842E+00 0.411E-02   0.124E+00 0.124E+00 0.381E-03
   0.514E+03 0.514E+03 0.286E-02   -.514E+03 -.514E+03 -.292E-03   -.458E+00 -.440E+00 0.368E-02   0.210E+00 0.210E+00 -.384E-03
   0.514E+03 0.514E+03 0.279E-02   -.514E+03 -.514E+03 -.115E-02   -.458E+00 -.440E+00 0.371E-02   0.210E+00 0.210E+00 0.445E-03
   0.513E+03 0.513E+03 -.413E-01   -.514E+03 -.514E+03 0.395E-01   0.103E-01 0.104E-01 0.482E-02   0.190E+00 0.190E+00 -.764E-05
   0.513E+03 0.513E+03 -.413E-01   -.514E+03 -.514E+03 0.395E-01   0.103E-01 0.105E-01 0.479E-02   0.190E+00 0.190E+00 -.492E-04
   -.523E+03 -.523E+03 0.164E+00   0.523E+03 0.523E+03 -.157E+00   -.247E+00 -.253E+00 -.162E-02   0.119E-01 0.133E-01 0.773E-03
   -.523E+03 -.523E+03 0.158E+00   0.523E+03 0.523E+03 -.153E+00   -.248E+00 -.254E+00 -.132E-02   0.121E-01 0.134E-01 0.252E-02
   -.515E+03 -.515E+03 0.302E-01   0.514E+03 0.515E+03 -.312E-01   0.344E+00 0.347E+00 0.399E-02   0.513E-01 0.496E-01 0.125E-03
   -.515E+03 -.515E+03 0.275E-01   0.514E+03 0.515E+03 -.283E-01   0.344E+00 0.347E+00 0.404E-02   0.513E-01 0.496E-01 -.155E-03
   -.150E+04 -.150E+04 -.235E-01   0.150E+04 0.150E+04 0.276E-01   -.128E+01 -.128E+01 -.169E-02   -.163E+00 -.163E+00 -.508E-02
   -.150E+04 -.150E+04 -.303E-01   0.150E+04 0.150E+04 0.292E-01   -.128E+01 -.128E+01 -.158E-02   -.163E+00 -.163E+00 0.389E-03
   -.157E+04 -.157E+04 -.439E-01   0.157E+04 0.157E+04 0.401E-01   0.384E+01 0.385E+01 0.951E-02   -.112E+00 -.113E+00 -.639E-03
   -.157E+04 -.157E+04 -.418E-01   0.157E+04 0.157E+04 0.384E-01   0.384E+01 0.385E+01 0.943E-02   -.113E+00 -.113E+00 -.918E-03
   0.195E+02 0.188E+02 0.499E-01   -.387E-11 -.455E-12 -.637E-13   -.214E+02 -.207E+02 0.972E-01   0.191E+01 0.191E+01 -.688E-02

 POSITION                                       TOTAL-FORCE (eV/Angst)
      2.56158     -2.56158      0.81099         0.301361      0.294138     -0.000911
      2.56158     -2.56158      3.91083         0.301369      0.294145     -0.000909
      2.05106     -0.31339      2.36091        -0.617089     -0.336573      0.000233
      2.05106     -0.31339      5.46075        -0.617094     -0.336575      0.000237
      4.80977     -3.07210      2.36091        -0.333881     -0.619616     -0.002164
      4.80977     -3.07210      5.46075        -0.333882     -0.619621     -0.002159
      4.29925     -0.82391      0.81099         0.133871      0.131332     -0.001049
      4.29925     -0.82391      3.91083         0.133871      0.131326     -0.001034
      2.56158      1.93480      0.81099        -0.153565     -0.157420     -0.002856
      2.56158      1.93480      3.91083        -0.153564     -0.157419     -0.002865
      4.80977      1.42428      2.36091        -0.021841     -0.055576     -0.002280
      4.80977      1.42428      5.46075        -0.021820     -0.055587     -0.002261
      6.54745     -0.31339      2.36091        -0.052392     -0.024413     -0.000071
      6.54745     -0.31339      5.46075        -0.052396     -0.024390     -0.000061
      4.29925      3.67248      0.81099         0.285605      0.278991     -0.004296
      4.29925      3.67248      3.91083         0.285665      0.279048     -0.004363
      7.05063      1.92763      0.81015        -0.019825     -0.019558      0.002645
      7.05063      1.92763      3.90999        -0.019869     -0.019675      0.002746
      6.55439      4.19179      2.36041         0.030869      0.030489      0.000851
      6.55438      4.19178      5.46026         0.030906      0.030543      0.000855
      9.31487      1.43166      2.36016         0.028806      0.028477      0.001503
      9.31487      1.43166      5.46001         0.028743      0.028506      0.001340
      8.78369      3.65619      0.81012         0.028330      0.022338      0.004394
      8.78368      3.65618      3.90996         0.028406      0.022407      0.004421
      7.07774      6.44976      0.81172         0.001909      0.005373     -0.004196
      7.07772      6.44975      3.91156         0.002237      0.005679     -0.004349
      9.39572      5.98275      2.36127        -0.004055     -0.006799     -0.001701
      9.39572      5.98274      5.46109        -0.004150     -0.006659     -0.001472
     11.10533      4.27348      2.36103        -0.004205     -0.004663      0.002832
     11.10532      4.27348      5.46086        -0.004071     -0.004762      0.002977
      8.81211      8.18526      0.81180        -0.010972     -0.012662     -0.000492
      8.81211      8.18526      3.91164        -0.011070     -0.012740     -0.000518
      1.18223      0.55545      0.81099         1.156852      1.159042      0.003150
      1.18223      0.55545      3.91083         1.156840      1.159029      0.003152
      3.43042     -1.69275      2.36091        -0.436047     -0.417463      0.001723
      3.43042     -1.69275      5.46075        -0.436042     -0.417458      0.001767
      3.43042      2.80364      2.36091        -0.163080     -0.143883      0.002943
      3.43042      2.80364      5.46075        -0.163075     -0.143887      0.002887
      5.67861      0.55545      0.81099        -0.183319     -0.183868      0.000069
      5.67861      0.55545      3.91083        -0.183294     -0.183824      0.000017
      5.69156      5.06519      0.81058         0.009607      0.010166      0.002519
      5.69158      5.06520      3.91041         0.009141      0.009952      0.002922
      7.91619      2.79405      2.36010        -0.001900     -0.004920      0.000145
      7.91620      2.79405      5.45995        -0.001897     -0.004864      0.000150
      7.96417      7.33883      2.36174        -0.007263     -0.007627     -0.005628
      7.96416      7.33883      5.46157        -0.007174     -0.007643     -0.005203
     10.13004      5.00811      0.81127         0.032196      0.034577      0.002148
     10.13003      5.00810      3.91111         0.032251      0.034585      0.002214
    total drift:                               -0.034576      0.057977      0.140299
  FORCES: max atom, RMS     0.047341    0.019028
  Number: max atom                48
  FORCE total and by dimension    0.131833    0.034585

  FREE ENERGIE OF THE ION-ELECTRON SYSTEM (eV)
  free  energy   TOTEN  =      -317.18659827 eV

  energy  without entropy=     -317.13728508  energy(sigma->0) =     -317.16194167

 d Force = 0.6837077E-03[ 0.501E-03, 0.867E-03]  d Energy = 0.6224734E-03 0.612E-04
 d Force = 0.3025269E+02[ 0.302E+02, 0.303E+02]  d Ewald  = 0.3025269E+02-0.140E-05

 Conjugate gradient step on ions:
 trial-energy change:   -0.000622  1 .order   -0.000684   -0.000867   -0.000501
  (g-gl).g = 0.283E-03      g.g   = 0.367E-03  gl.gl    = 0.114E-02
 g(Force)  = 0.367E-03   g(Stress)= 0.000E+00 ortho     =-0.671E-05
 gamma     =   0.24850
 trial     =   2.37013
 opt step  =   5.60761  (harmonic =   5.60761) maximal distance =0.00318861
 next E    =  -317.187001   (d E  =  -0.00103)

 reached required accuracy - stopping structural energy minimisation