vasp.5.4.1 08Jul2015 (build Apr 24 2014 00:09:29) complex standard with constrain (TS)
 executed on IBM of Center for Computational Chemistry date 2017.12.17  20:40:38

 INCAR:
 POTCAR:    PAW_PBE O 08Apr2002
 POTCAR:    PAW_PBE Os 17Jan2003
 POTCAR:    PAW_PBE O 08Apr2002
   VRHFIN =O: s2p4

   TITEL  = PAW_PBE O 08Apr2002
   POMASS =   16.000; ZVAL   =    6.000    mass and valenz
   ENMAX  =  400.000; ENMIN  =  300.000 eV

 POTCAR:    PAW_PBE Os 17Jan2003
   VRHFIN =Os: 6s5d

   TITEL  = PAW_PBE Os 17Jan2003
   POMASS =  190.200; ZVAL   =    8.000    mass and valenz
   ENMAX  =  228.022; ENMIN  =  171.017 eV

 Optimization of the real space projectors (new method)

 maximal supplied QI-value         = 24.76
 optimisation between [QCUT,QGAM] = [ 11.39, 22.77] = [ 36.31,145.25] Ry
 Optimized for a Real-space Cutoff    1.10 Angstroem

   l    n(q)    QCUT    max X(q) W(low)/X(q) W(high)/X(q)  e(spline)
   0      7    11.387    20.381    0.22E-03    0.48E-03    0.18E-06
   0      7    11.387    15.268    0.22E-03    0.52E-03    0.19E-06
   1      7    11.387     5.964    0.22E-03    0.73E-03    0.24E-06
   1      7    11.387     5.382    0.19E-03    0.60E-03    0.21E-06
 Optimization of the real space projectors (new method)

 maximal supplied QI-value         = 13.98
 optimisation between [QCUT,QGAM] = [ 11.33, 22.79] = [ 35.93,145.49] Ry
 Optimized for a Real-space Cutoff    1.61 Angstroem

   l    n(q)    QCUT    max X(q) W(low)/X(q) W(high)/X(q)  e(spline)
   2     10    11.327   152.873    0.95E-04    0.32E-03    0.94E-06
   2     10    11.327   151.010    0.95E-04    0.32E-03    0.94E-06
   0     11    11.327    72.114    0.44E-04    0.20E-04    0.98E-07
   0     11    11.327    44.596    0.38E-04    0.19E-04    0.91E-07
   1     11    11.327    13.742    0.15E-03    0.10E-03    0.26E-06
   1     11    11.327     8.461    0.11E-03    0.76E-04    0.20E-06
  PAW_PBE O 08Apr2002                   :
  PAW_PBE Os 17Jan2003                  :

 POSCAR: AutoCreatByScript
  positions in direct lattice
 exchange correlation table for  LEXCH =        8
   RHO(1)=    0.500       N(1)  =     2000
   RHO(2)=  100.500       N(2)  =     4000

 ion  position               nearest neighbor table
   1  0.131  0.570  0.000-  35 2.02  36 2.02
   2  0.631  0.570  0.000-  35 2.02  36 2.02
   3  0.381  0.262  0.056-  35 1.96  34 2.02  33 2.02
   4  0.881  0.262  0.056-  36 1.96  34 2.02  33 2.02
   5  0.381  0.878  0.056-  35 1.96  34 2.02  33 2.02
   6  0.881  0.878  0.056-  36 1.96  34 2.02  33 2.02
   7  0.131  0.570  0.111-  39 1.96  36 2.02  35 2.02
   8  0.631  0.570  0.111-  40 1.96  36 2.02  35 2.02
   9  0.131  0.070  0.145-  33 1.96  37 2.02  38 2.02
  10  0.631  0.070  0.145-  34 1.96  37 2.02  38 2.02
  11  0.381  0.378  0.200-  37 1.96  39 2.02  40 2.02
  12  0.881  0.378  0.200-  38 1.96  39 2.02  40 2.02
  13  0.381  0.762  0.200-  37 1.96  39 2.02  40 2.02
  14  0.881  0.762  0.200-  38 1.96  39 2.02  40 2.02
  15  0.131  0.070  0.256-  41 1.96  38 2.02  37 2.02
  16  0.631  0.070  0.256-  42 1.96  38 2.02  37 2.02
  17  0.131  0.570  0.289-  39 1.96  43 2.02  44 2.02
  18  0.631  0.570  0.289-  40 1.96  43 2.02  44 2.02
  19  0.381  0.262  0.345-  43 1.96  42 2.02  41 2.02
  20  0.881  0.262  0.345-  44 1.96  42 2.02  41 2.02
  21  0.381  0.878  0.345-  43 1.96  42 2.02  41 2.02
  22  0.881  0.878  0.345-  44 1.96  42 2.02  41 2.02
  23  0.131  0.570  0.400-  47 1.96  44 2.02  43 2.02
  24  0.631  0.570  0.400-  48 1.96  44 2.02  43 2.02
  25  0.131  0.070  0.434-  41 1.96  45 2.02  46 2.02
  26  0.631  0.070  0.434-  42 1.96  45 2.02  46 2.02
  27  0.381  0.378  0.490-  45 1.96  47 2.02  48 2.02
  28  0.881  0.378  0.490-  46 1.96  47 2.02  48 2.02
  29  0.381  0.762  0.490-  45 1.96  47 2.02  48 2.02
  30  0.881  0.762  0.490-  46 1.96  47 2.02  48 2.02
  31  0.131  0.070  0.545-  45 2.02  46 2.02
  32  0.631  0.070  0.545-  45 2.02  46 2.02
  33  0.131  0.070  0.056-   9 1.96   4 2.02   5 2.02   6 2.02   3 2.02  34 3.21  34 3.21
  34  0.631  0.070  0.056-  10 1.96   4 2.02   5 2.02   6 2.02   3 2.02  33 3.21  33 3.21
  35  0.381  0.570  0.056-   3 1.96   5 1.96   1 2.02   2 2.02   7 2.02   8 2.02  36 3.21  36 3.21

  36  0.881  0.570  0.056-   4 1.96   6 1.96   1 2.02   2 2.02   7 2.02   8 2.02  35 3.21  35 3.21

[...]

  47  0.131  0.570  0.490-  23 1.96  27 2.02  28 2.02  29 2.02  30 2.02  48 3.21  48 3.21
  48  0.631  0.570  0.490-  24 1.96  27 2.02  28 2.02  29 2.02  30 2.02  47 3.21  47 3.21

IMPORTANT INFORMATION: All symmetrisations will be switched off!
NOSYMM: (Re-)initialisation of all symmetry stuff for point group C_1.

 KPOINTS: mesh auto

Automatic generation of k-mesh.
Space group operators:
 irot       det(A)        alpha          n_x          n_y          n_z        tau_x        tau_y        tau_z
    1     1.000000     0.000000     1.000000     0.000000     0.000000     0.000000     0.000000     0.000000

 Subroutine IBZKPT returns following result:

 Found     10 irreducible k-points:

 Following reciprocal coordinates:
            Coordinates               Weight
  0.000000  0.000000  0.000000      1.000000
  0.250000  0.000000  0.000000      2.000000
  0.500000  0.000000  0.000000      1.000000
  0.000000  0.250000  0.000000      2.000000
  0.250000  0.250000  0.000000      2.000000
  0.500000  0.250000  0.000000      2.000000
 -0.250000  0.250000  0.000000      2.000000
  0.000000  0.500000  0.000000      1.000000
  0.250000  0.500000  0.000000      2.000000
  0.500000  0.500000  0.000000      1.000000

 Following cartesian coordinates:
            Coordinates               Weight
  0.000000  0.000000  0.000000      1.000000
  0.000000  0.000000  0.038928      2.000000
  0.000000  0.000000  0.077857      1.000000
  0.027783 -0.027783  0.000000      2.000000
  0.027783 -0.027783  0.038928      2.000000
  0.027783 -0.027783  0.077857      2.000000
  0.027783 -0.027783 -0.038928      2.000000
  0.055566 -0.055566  0.000000      1.000000
  0.055566 -0.055566  0.038928      2.000000
  0.055566 -0.055566  0.077857      1.000000

 I would recommend the setting:
   dimension x,y,z NGX =    47 NGY =   46 NGZ =  160
 SYSTEM =  OsO2_suf110_2x1x4_2fix
 POSCAR =  AutoCreatByScript

 Startparameter for this run:
   NWRITE =      2    write-flag & timer
   PREC   = accura    normal or accurate (medium, high low for compatibility)
   ISTART =      0    job   : 0-new  1-cont  2-samecut
   ICHARG =      2    charge: 1-file 2-atom 10-const
   ISPIN  =      2    spin polarized calculation?
   LNONCOLLINEAR =      F non collinear calculations
   LSORBIT =      F    spin-orbit coupling
   INIWAV =      1    electr: 0-lowe 1-rand  2-diag
   LASPH  =      F    aspherical Exc in radial PAW
   METAGGA=      F    non-selfconsistent MetaGGA calc.

 Electronic Relaxation 1
   ENCUT  =  500.0 eV  36.75 Ry    6.06 a.u.  11.71 11.60 40.08*2*pi/ulx,y,z
   ENINI  =  500.0     initial cutoff
   ENAUG  =  605.4 eV  augmentation charge cutoff
   NELM   =    300;   NELMIN=  3; NELMDL= -5     # of ELM steps
   EDIFF  = 0.1E-03   stopping-criterion for ELM
   LREAL  =      T    real-space projection
   NLSPLINE    = F    spline interpolate recip. space projectors
   LCOMPAT=      F    compatible to vasp.4.4
   GGA_COMPAT  = T    GGA compatible to vasp.4.4-vasp.4.6
   LMAXPAW     = -100 max onsite density
   LMAXMIX     =    2 max onsite mixed and CHGCAR
   VOSKOWN=      0    Vosko Wilk Nusair interpolation
   ROPT   =   -0.00025  -0.00025
 Ionic relaxation
   EDIFFG = -.5E-01   stopping-criterion for IOM
   NSW    =   1000    number of steps for IOM
   NBLOCK =      1;   KBLOCK =   1000    inner block; outer block
   IBRION =      2    ionic relax: 0-MD 1-quasi-New 2-CG
   NFREE  =      1    steps in history (QN), initial steepest desc. (CG)
   ISIF   =      2    stress and relaxation
   IWAVPR =     11    prediction:  0-non 1-charg 2-wave 3-comb
   ISYM   =      0    0-nonsym 1-usesym 2-fastsym
   LCORR  =      T    Harris-Foulkes like correction to forces

   POTIM  = 0.1000    time-step for ionic-motion
   TEIN   =    0.0    initial temperature
   TEBEG  =    0.0;   TEEND  =   0.0 temperature during run
   SMASS  =  -3.00    Nose mass-parameter (am)
   estimated Nose-frequenzy (Omega)   =  0.10E-29 period in steps =****** mass=  -0.942E-27a.u.
   SCALEE = 1.0000    scale energy and forces
   NPACO  =    256;   APACO  = 16.0  distance and # of slots for P.C.
   PSTRESS=    0.0 pullay stress

  Mass of Ions in am
   POMASS =  16.00190.20
  Ionic Valenz
   ZVAL   =   6.00  8.00
  Atomic Wigner-Seitz radii
  virtual crystal weights
   VCA    =   1.00  1.00
   NELECT =     320.0000    total number of electrons
   NUPDOWN=      -1.0000    fix difference up-down

 DOS related values:
   EMIN   =  10.00;   EMAX   =-10.00  energy-range for DOS
   EFERMI =   0.00
   ISMEAR =     0;   SIGMA  =   0.05  broadening in eV -4-tet -1-fermi 0-gaus

 Electronic relaxation 2 (details)
   IALGO  =     68    algorithm
   LDIAG  =      T    sub-space diagonalisation (order eigenvalues)
   LSUBROT=      F    optimize rotation matrix (better conditioning)
   TURBO    =      0    0=normal 1=particle mesh
   IRESTART =      0    0=no restart 2=restart with 2 vectors
   NREBOOT  =      0    no. of reboots
   NMIN     =      0    reboot dimension
   EREF     =   0.00    reference energy to select bands
   IMIX   =      4    mixing-type and parameters
     AMIX     =   0.40;   BMIX     =  1.00
     AMIX_MAG =   1.60;   BMIX_MAG =  1.00
     AMIN     =   0.10
     WC   =   100.;   INIMIX=   1;  MIXPRE=   1;  MAXMIX= -45

 Intra band minimization:
   WEIMIN = 0.0010     energy-eigenvalue tresh-hold
   EBREAK =  0.12E-06  absolut break condition
   DEPER  =   0.30     relativ break condition

   TIME   =   0.40     timestep for ELM

  volume/ion in A,a.u.               =      18.72       126.30
  Fermi-wavevector in a.u.,A,eV,Ry     =   1.160492  2.193013 18.323548  1.346743
  Thomas-Fermi vector in A             =   2.297074

 Write flags
   LWAVE  =      F    write WAVECAR
   LCHARG =      F    write CHGCAR
   LVTOT  =      F    write LOCPOT, total local potential
   LVHAR  =      F    write LOCPOT, Hartree potential only
   LELF   =      F    write electronic localiz. function (ELF)
   LORBIT =      0    0 simple, 1 ext, 2 COOP (PROOUT)

 Dipole corrections
   LMONO  =      F    monopole corrections only (constant potential shift)
   LDIPOL =      F    correct potential (dipole corrections)
   IDIPOL =      0    1-x, 2-y, 3-z, 4-all directions
   EPSILON=  1.0000000 bulk dielectric constant

 Exchange correlation treatment:
   GGA     =    --    GGA type
   VOSKOWN=      0    Vosko Wilk Nusair interpolation
   LHFCALC =     F    Hartree Fock is set to
   LHFONE  =     F    Hartree Fock one center treatment
   AEXX    =    0.0000 exact exchange contribution

 Linear response parameters
   LEPSILON=     F    determine dielectric tensor
   LRPA    =     F    only Hartree local field effects (RPA)
   LNABLA  =     F    use nabla operator in PAW spheres
   LVEL    =     F    velocity operator in full k-point grid
   LINTERFAST=   F  fast interpolation
   KINTER  =     0    interpolate to denser k-point grid
[...]
      31 -75.0843      32 -75.0844      33 -51.6427      34 -51.6422      35 -52.2324
      36 -52.2273      37 -52.0683      38 -52.0686      39 -51.9164      40 -51.9165
      41 -51.9599      42 -51.9599      43 -52.0352      44 -52.0348      45 -52.3836
      46 -52.3829      47 -51.7957      48 -51.7958

 E-fermi :   1.1169     XC(G=0):  -7.4767     alpha+bet : -6.4861

[...]

 spin component 2

[...]

 k-point    10 :       0.5000    0.5000    0.0000
  band No.  band energies     occupation
      1     -19.5258      1.00000
      2     -19.5256      1.00000
      3     -19.2741      1.00000
      4     -19.2741      1.00000
      5     -19.0619      1.00000
      6     -19.0618      1.00000
      7     -18.9545      1.00000
      8     -18.9544      1.00000
      9     -18.8339      1.00000
     10     -18.8338      1.00000
     11     -18.7461      1.00000
     12     -18.7459      1.00000
     13     -18.7108      1.00000
     14     -18.7104      1.00000
     15     -18.6663      1.00000
     16     -18.6659      1.00000
     17     -18.5753      1.00000
     18     -18.5751      1.00000
     19     -18.5487      1.00000
     20     -18.5486      1.00000
     21     -18.5158      1.00000
     22     -18.5156      1.00000
     23     -18.4676      1.00000
     24     -18.4675      1.00000
     25     -18.3893      1.00000
     26     -18.3891      1.00000
     27     -18.2768      1.00000
     28     -18.2767      1.00000
     29     -17.5275      1.00000
     30     -17.5275      1.00000
     31     -16.7080      1.00000
     32     -16.7079      1.00000
     33      -7.5978      1.00000
     34      -7.5976      1.00000
     35      -7.3889      1.00000
     36      -7.3888      1.00000
     37      -6.8511      1.00000
     38      -6.8510      1.00000
     39      -6.6922      1.00000
     40      -6.6921      1.00000
     41      -6.5113      1.00000
     42      -6.5112      1.00000
     43      -6.4939      1.00000
     44      -6.4938      1.00000
     45      -6.4936      1.00000
     46      -6.4933      1.00000
     47      -6.4864      1.00000
     48      -6.4863      1.00000
     49      -6.4008      1.00000
     50      -6.4007      1.00000
     51      -6.3939      1.00000
     52      -6.3937      1.00000
     53      -6.2846      1.00000
     54      -6.2846      1.00000
     55      -6.2565      1.00000
     56      -6.2564      1.00000
     57      -6.1943      1.00000
     58      -6.1942      1.00000
     59      -6.1202      1.00000
     60      -6.1198      1.00000
[...]
    202       6.0077      0.00000
    203       6.0630      0.00000
    204       6.0641      0.00000
    205       6.3711      0.00000
    206       6.3712      0.00000
    207       6.4255      0.00000
    208       6.4265      0.00000
    209       6.8138      0.00000
    210       6.8139      0.00000
    211       6.8287      0.00000
    212       6.8289      0.00000
    213       7.6694      0.00000
    214       7.6696      0.00000
    215       7.8991      0.00000
    216       7.8996      0.00000

[...]

 soft charge-density along one line, spin component           2
         0         1         2         3         4         5         6         7         8         9
 total charge-density along one line

------------------------ aborting loop because EDIFF is reached ----------------------------------------

         DFTD3 V3.0 Rev 1
 Edisp (eV)   -9.04608

 E6    (eV) :    -5.3366
 E8    (eV) :    -3.7095
 % E8        : 41.01

  FORCE on cell =-STRESS in cart. coord.  units (eV):
  Direction    XX          YY          ZZ          XY          YZ          ZX
  Alpha Z  1035.12072  1035.12072  1035.12072
  Ewald   -7088.79082 -7088.65309 71868.46960-76546.68636    -0.03579    -0.14581
  Hartree  1154.22235  1154.25454 76334.28609-74256.43429     0.00300    -0.01669
  E(xc)   -1545.38157 -1545.38095 -1541.81151    -0.00583    -0.00020    -0.00020
  Local     988.83056   988.67676************150811.29109     0.02702     0.14446
  n-local -1117.73027 -1117.72688 -1117.89920   -13.55817     0.00524    -0.01633
  augment   475.72053   475.71968   479.20459    -1.27863     0.00126     0.00285
  Kinetic  6105.06828  6105.05107  5969.97458     1.88949     0.01052     0.02316
  Fock        0.00000     0.00000     0.00000     0.00000     0.00000     0.00000
  vdW        -8.32503    -8.32504    -9.37871     0.93065    -0.00000     0.00000
  Total      -1.26524    -1.26319   -16.04984    -3.85204     0.01104    -0.00855
  in kB      -2.25649    -2.25285   -28.62423    -6.86995     0.01969    -0.01526

 VOLUME and BASIS-vectors are now :
  energy-cutoff  :      500.00
  volume of cell :      898.35
      direct lattice vectors                 reciprocal lattice vectors
     0.000000000  0.000000000  6.422039890     0.000000000  0.000000000  0.155713763
     4.499147580 -4.499147580  0.000000000     0.111132163 -0.111132163  0.000000000
    15.545842160 15.545842160  0.000000000     0.032162941  0.032162941  0.000000000

  length of vectors
     6.422039890  6.362755527 21.985140821     0.155713763  0.157164611  0.045485267

 FORCES acting on ions
    electron-ion (+dipol)            ewald-force                    non-local-force                 convergence-correction
   0.115E+04 0.115E+04 0.939E-01   -.117E+04 -.117E+04 0.523E-05   0.179E+02 0.179E+02 0.486E-02   0.525E-02 0.525E-02 -.982E-01
   0.115E+04 0.115E+04 -.940E-01   -.117E+04 -.117E+04 -.497E-05   0.179E+02 0.179E+02 0.425E-02   0.653E-02 0.653E-02 0.982E-01
   0.957E+03 0.943E+03 -.109E-01   -.957E+03 -.943E+03 0.409E-06   -.112E+01 -.170E+00 0.259E-02   0.529E-01 0.673E-01 0.113E-01
   0.957E+03 0.943E+03 0.107E-01   -.957E+03 -.943E+03 -.218E-05   -.112E+01 -.166E+00 0.312E-02   0.128E+00 -.617E-02 -.113E-01
   0.943E+03 0.957E+03 -.109E-01   -.943E+03 -.957E+03 0.695E-06   -.166E+00 -.113E+01 0.120E-02   0.673E-01 0.529E-01 0.113E-01
   0.943E+03 0.957E+03 0.108E-01   -.943E+03 -.957E+03 -.201E-05   -.163E+00 -.113E+01 0.173E-02   -.618E-02 0.128E+00 -.113E-01
   0.679E+03 0.679E+03 0.958E-01   -.679E+03 -.679E+03 0.114E-03   0.599E+00 0.598E+00 0.480E-02   0.115E+00 0.115E+00 -.101E+00
   0.679E+03 0.679E+03 -.962E-01   -.679E+03 -.679E+03 -.776E-04   0.599E+00 0.598E+00 0.121E-03   0.112E+00 0.112E+00 0.101E+00
   0.584E+03 0.584E+03 0.881E-02   -.581E+03 -.581E+03 0.757E-04   -.240E+01 -.240E+01 0.298E-02   0.148E+00 0.148E+00 -.881E-02
   0.584E+03 0.584E+03 -.920E-02   -.581E+03 -.581E+03 -.426E-04   -.240E+01 -.240E+01 0.293E-02   0.139E+00 0.139E+00 0.880E-02
   0.336E+03 0.295E+03 0.102E-02   -.336E+03 -.295E+03 -.567E-03   0.232E+00 -.324E+00 0.302E-02   0.108E+00 0.102E+00 -.609E-03
   0.336E+03 0.295E+03 0.657E-04   -.336E+03 -.295E+03 -.621E-03   0.233E+00 -.324E+00 0.300E-02   0.104E+00 0.770E-01 0.579E-03
   0.295E+03 0.336E+03 0.798E-03   -.295E+03 -.336E+03 -.334E-03   -.321E+00 0.229E+00 0.151E-02   0.102E+00 0.108E+00 -.607E-03
   0.295E+03 0.336E+03 -.145E-03   -.295E+03 -.336E+03 -.398E-03   -.321E+00 0.229E+00 0.149E-02   0.769E-01 0.104E+00 0.581E-03
   0.527E+02 0.528E+02 -.341E-02   -.519E+02 -.519E+02 0.182E-02   -.731E+00 -.735E+00 0.183E-02   0.694E-01 0.693E-01 0.222E-02
   0.527E+02 0.528E+02 -.424E-03   -.519E+02 -.519E+02 0.308E-02   -.731E+00 -.734E+00 0.215E-02   0.681E-01 0.680E-01 -.237E-02
   -.546E+02 -.546E+02 0.120E-01   0.540E+02 0.541E+02 -.606E-02   0.471E+00 0.470E+00 0.259E-02   0.592E-01 0.602E-01 -.836E-02
   -.546E+02 -.546E+02 -.539E-03   0.540E+02 0.541E+02 -.138E-01   0.471E+00 0.470E+00 0.285E-02   0.605E-01 0.615E-01 0.121E-01
   -.339E+03 -.299E+03 0.184E-01   0.340E+03 0.299E+03 -.216E-01   -.490E+00 0.278E+00 0.264E-02   -.182E-01 -.654E-02 0.754E-03
   -.339E+03 -.299E+03 0.179E-01   0.340E+03 0.299E+03 -.221E-01   -.489E+00 0.278E+00 0.254E-02   -.107E-01 -.146E-01 0.177E-02
   -.299E+03 -.339E+03 -.858E-05   0.299E+03 0.340E+03 0.133E-02   0.283E+00 -.492E+00 0.549E-03   -.574E-02 -.186E-01 -.447E-03
   -.299E+03 -.339E+03 -.289E-03   0.299E+03 0.340E+03 0.638E-03   0.282E+00 -.491E+00 0.429E-03   -.138E-01 -.110E-01 0.559E-03
   -.576E+03 -.576E+03 0.415E-02   0.572E+03 0.572E+03 0.389E-02   0.369E+01 0.369E+01 0.361E-02   -.203E-01 -.204E-01 -.932E-02
   -.576E+03 -.576E+03 -.597E-02   0.572E+03 0.572E+03 -.308E-02   0.369E+01 0.370E+01 0.380E-02   -.183E-01 -.185E-01 0.828E-02
   -.680E+03 -.680E+03 -.221E-01   0.681E+03 0.681E+03 0.202E-01   -.921E+00 -.918E+00 -.425E-03   -.118E+00 -.119E+00 0.292E-02
   -.680E+03 -.680E+03 -.196E-01   0.681E+03 0.681E+03 0.156E-01   -.921E+00 -.917E+00 0.510E-02   -.117E+00 -.119E+00 -.154E-03
   -.964E+03 -.954E+03 0.409E-03   0.964E+03 0.956E+03 0.381E-03   -.165E+00 -.172E+01 -.415E-02   0.347E-01 -.169E+00 0.282E-02
   -.964E+03 -.954E+03 -.705E-02   0.964E+03 0.956E+03 0.129E-01   -.165E+00 -.172E+01 -.487E-02   0.372E-01 -.173E+00 -.119E-02
   -.954E+03 -.964E+03 0.239E-02   0.956E+03 0.964E+03 -.178E-02   -.172E+01 -.172E+00 -.168E-02   -.169E+00 0.343E-01 0.251E-02
   -.954E+03 -.964E+03 -.507E-02   0.956E+03 0.964E+03 0.108E-01   -.172E+01 -.172E+00 -.235E-02   -.173E+00 0.367E-01 -.149E-02
   -.115E+04 -.115E+04 0.495E-01   0.117E+04 0.117E+04 -.693E-01   -.175E+02 -.175E+02 0.153E-01   -.815E-01 -.812E-01 0.465E-02
   -.115E+04 -.115E+04 -.329E-01   0.117E+04 0.117E+04 0.401E-01   -.175E+02 -.175E+02 -.130E-02   -.817E-01 -.814E-01 -.279E-02
   0.133E+04 0.133E+04 0.334E-01   -.133E+04 -.133E+04 0.198E-04   -.226E+01 -.226E+01 -.817E-03   0.796E-01 0.796E-01 -.330E-01
   0.133E+04 0.133E+04 -.334E-01   -.133E+04 -.133E+04 -.184E-04   -.226E+01 -.226E+01 -.220E-02   0.792E-01 0.792E-01 0.330E-01
   0.123E+04 0.123E+04 -.330E-02   -.123E+04 -.123E+04 -.613E-07   0.295E+00 0.294E+00 -.215E-02   0.806E-01 0.806E-01 0.327E-02
   0.123E+04 0.123E+04 0.325E-02   -.123E+04 -.123E+04 -.380E-05   0.291E+00 0.290E+00 -.206E-02   0.839E-01 0.839E-01 -.327E-02
   0.422E+03 0.422E+03 -.193E-02   -.422E+03 -.422E+03 -.165E-03   -.586E+00 -.587E+00 -.210E-02   0.144E+00 0.144E+00 0.200E-02
   0.422E+03 0.422E+03 0.221E-02   -.422E+03 -.422E+03 -.237E-03   -.586E+00 -.587E+00 -.242E-02   0.136E+00 0.136E+00 -.200E-02
   0.420E+03 0.420E+03 0.142E-01   -.420E+03 -.420E+03 0.313E-02   0.627E-02 0.617E-02 -.699E-03   0.124E+00 0.124E+00 -.175E-01
   0.420E+03 0.420E+03 -.180E-01   -.420E+03 -.420E+03 0.337E-03   0.631E-02 0.622E-02 -.135E-02   0.123E+00 0.123E+00 0.177E-01
   -.425E+03 -.424E+03 -.181E-01   0.425E+03 0.425E+03 0.214E-01   -.125E+00 -.127E+00 -.814E-03   0.867E-02 0.878E-02 -.380E-02
   -.425E+03 -.424E+03 -.410E-01   0.425E+03 0.425E+03 0.378E-01   -.125E+00 -.127E+00 -.443E-03   0.877E-02 0.887E-02 0.258E-02
   -.418E+03 -.418E+03 -.758E-02   0.418E+03 0.418E+03 0.745E-02   0.475E+00 0.473E+00 -.191E-02   0.112E-01 0.119E-01 0.918E-05
   -.418E+03 -.418E+03 -.591E-02   0.418E+03 0.418E+03 0.678E-02   0.475E+00 0.473E+00 -.219E-02   0.104E-01 0.111E-01 -.332E-03
   -.124E+04 -.124E+04 0.307E-01   0.124E+04 0.124E+04 -.296E-01   -.754E+00 -.756E+00 -.173E-02   -.808E-01 -.807E-01 0.401E-03
   -.124E+04 -.124E+04 0.181E-01   0.124E+04 0.124E+04 -.159E-01   -.752E+00 -.754E+00 -.189E-02   -.824E-01 -.824E-01 -.594E-03
   -.130E+04 -.130E+04 -.417E-02   0.129E+04 0.129E+04 0.473E-02   0.268E+01 0.268E+01 -.596E-03   -.822E-01 -.821E-01 -.278E-03
   -.130E+04 -.130E+04 0.647E-02   0.129E+04 0.129E+04 -.711E-02   0.268E+01 0.268E+01 -.102E-02   -.822E-01 -.821E-01 0.790E-03
   0.404E+01 0.406E+01 -.168E-01   -.159E-11 0.205E-11 0.131E-14   -.522E+01 -.532E+01 0.419E-01   0.122E+01 0.122E+01 0.114E-01

 POSITION                                       TOTAL-FORCE (eV/Angst)
      2.56316     -2.56316      0.84008         1.215422      1.215710     -0.000139
      2.56316     -2.56316      4.05110         1.215373      1.215661      0.007682
      2.03963     -0.31358      2.44559        -0.656372     -0.160690      0.002277
      2.03963     -0.31358      5.65661        -0.656321     -0.160432      0.001766
      4.81273     -3.08668      2.44559        -0.158667     -0.659232      0.000902
      4.81273     -3.08668      5.65661        -0.158408     -0.659180      0.000390
      4.28921     -0.83710      0.84008         0.277046      0.278112     -0.000584
      4.28921     -0.83710      4.05110         0.277013      0.278079      0.003645
      2.56316      1.93599      0.84008        -0.139640     -0.139382      0.002300
      2.56316      1.93599      4.05110        -0.140133     -0.139874      0.001727
      4.81273      1.41247      2.44559         0.108342     -0.185843      0.002099
      4.81273      1.41247      5.65661         0.108552     -0.186207      0.002265
      6.53878     -0.31358      2.44559        -0.184178      0.106844      0.000606
      6.53878     -0.31358      5.65661        -0.184541      0.107054      0.000771
      4.28921      3.66204      0.84008         0.236390      0.235055      0.001705
      4.28921      3.66204      4.05110         0.236424      0.235088      0.001673
      7.05787      1.93147      0.84002        -0.013753     -0.014049     -0.000607
      7.05787      1.93147      4.05106        -0.013770     -0.014061     -0.000150
      6.54099      4.19957      2.44560         0.018970      0.015874     -0.000515
      6.54099      4.19956      5.65662         0.018918      0.015990     -0.000587
      9.32591      1.41457      2.44546         0.015857      0.018585      0.000661
      9.32590      1.41457      5.65649         0.015973      0.018531      0.000577
      8.76639      3.64004      0.83999         0.004075      0.004091      0.001572
      8.76641      3.64006      4.05102         0.003072      0.003068      0.002278
      7.07334      6.44623      0.83953         0.009442      0.012250     -0.000117
      7.07335      6.44623      4.05047         0.009367      0.012162      0.000253
      9.36221      5.93484      2.44548         0.005774      0.012329     -0.001301
      9.36223      5.93483      5.65647         0.005186      0.012680     -0.000922
     11.06102      4.23609      2.44550         0.011840      0.007178      0.000669
     11.06101      4.23611      5.65649         0.011997      0.006322      0.001111
      8.76067      8.13382      0.83980         0.009950      0.009304     -0.000496
      8.76067      8.13382      4.05066         0.010024      0.009298      0.002390
      1.17661      0.54944      0.84008         1.239474      1.241041     -0.001176
      1.17661      0.54944      4.05110         1.240548      1.242114     -0.003350
      3.42618     -1.70013      2.44559        -1.620937     -1.620092     -0.002941
      3.42618     -1.70013      5.65661        -1.628336     -1.627492     -0.002843
      3.42618      2.79902      2.44559        -0.326668     -0.325966     -0.002947
      3.42618      2.79902      5.65661        -0.326442     -0.325739     -0.003202
      5.67576      0.54944      0.84008        -0.049604     -0.047929     -0.001652
      5.67576      0.54944      4.05110        -0.049604     -0.047930     -0.002062
      5.68755      5.06039      0.84000         0.003171      0.003118     -0.002058
      5.68755      5.06039      4.05101         0.003202      0.003153     -0.001843
      7.91775      2.79138      2.44549        -0.005315     -0.004552     -0.002790
      7.91775      2.79138      5.65651        -0.005223     -0.004454     -0.002407
      7.99358      7.36665      2.44512        -0.012131     -0.012394     -0.000929
      7.99346      7.36653      5.65614        -0.010147     -0.010195     -0.001015
     10.11570      4.98966      0.83996         0.013931      0.013036     -0.001059
     10.11566      4.98962      4.05099         0.014859      0.013964     -0.001625
    total drift:                                0.045120     -0.038197      0.036435
  FORCES: max atom, RMS     0.024777    0.011468
  Number: max atom                20
  FORCE total and by dimension    0.079454    0.018970

  FREE ENERGIE OF THE ION-ELECTRON SYSTEM (eV)
  free  energy   TOTEN  =      -381.82535187 eV

  energy  without entropy=     -381.79249693  energy(sigma->0) =     -381.80892440

 d Force = 0.4837977E-03[ 0.206E-03, 0.761E-03]  d Energy = 0.3765671E-03 0.107E-03
 d Force = 0.2142107E+02[ 0.214E+02, 0.214E+02]  d Ewald  = 0.2142107E+02 0.229E-06

 Conjugate gradient step on ions:
 trial-energy change:   -0.000377  1 .order   -0.000484   -0.000761   -0.000206
  (g-gl).g = 0.200E-03      g.g   = 0.304E-03  gl.gl    = 0.422E-03
 g(Force)  = 0.304E-03   g(Stress)= 0.000E+00 ortho     = 0.402E-04
 gamma     =   0.47513
 trial     =   2.35793
 opt step  =   3.23519  (harmonic =   3.23519) maximal distance =0.00186261
 next E    =  -381.825497   (d E  =  -0.00052)

 reached required accuracy - stopping structural energy minimisation